LAMMPS (3 Mar 2020)
# chain on a wall - Langevin thermostat

# units, simulation style, boundaries
units		lj
atom_style	bond
boundary        p p f

# read in file
read_data       brush_N20.data
  orthogonal box = (-15.75 -12.7305 0) to (15.75 12.7305 30)
  1 by 1 by 1 MPI processor grid
  reading atoms ...
  3260 atoms
  scanning bonds ...
  1 = max bonds/atom
  reading bonds ...
  2299 bonds
  2 = max # of 1-2 neighbors
  2 = max # of 1-3 neighbors
  4 = max # of 1-4 neighbors
  6 = max # of special neighbors
  special bonds CPU = 0.000968933 secs
  read_data CPU = 0.00630903 secs

# set pair potential
pair_style      lj/cut 2.5
pair_coeff      * * 1.0   1.0 1.12246
pair_coeff      1 4 200.0 1.0 2.5
pair_coeff      4 4 0.00 0.00 0.000
## add pair coeff. for lj potential of monomers
## add pair coeff. to attatch chain on the wall

# set bonding potential
bond_style      fene
bond_coeff      1 30 1.5 1.0 1.0
special_bonds   fene
  2 = max # of 1-2 neighbors
  6 = max # of special neighbors
  special bonds CPU = 0.000392914 secs

# change timestep [LJ units]
timestep        0.002

# define groups
group           chain type 1 2 3
2420 atoms in group chain
group           wall type 4
840 atoms in group wall
group           end type 3
121 atoms in group end

# time integration + thermostat
fix		1 chain nve
fix             2 chain langevin  1.2 1.2 0.5 1337

## dump a movie if you want
#dump           1 all xyz 1000 film.xyz

dump            2 all dcd 1000 film.dcd
dump_modify     2 unwrap yes

dump            3 all custom 1000 film.traj id type xu yu zu

# thermodynamic output, Nr. of time steps
thermo          1000
run             300000
Neighbor list info ...
  update every 1 steps, delay 10 steps, check yes
  max neighbors/atom: 2000, page size: 100000
  master list distance cutoff = 2.8
  ghost atom cutoff = 2.8
  binsize = 1.4, bins = 23 19 22
  1 neighbor lists, perpetual/occasional/extra = 1 0 0
  (1) pair lj/cut, perpetual
      attributes: half, newton on
      pair build: half/bin/newton
      stencil: half/bin/3d/newton
      bin: standard
Per MPI rank memory allocation (min/avg/max) = 6.201 | 6.201 | 6.201 Mbytes
Step Temp E_pair E_mol TotEng Press 
       0            0   -23.286555    14.695123   -8.5914316   -5.3859945 
    1000   0.97747961   -33.787915    14.797696   -17.524449   -2.0149099 
    2000   0.89566384   -33.866751    14.736404   -17.787263   -1.8365248 
    3000   0.86498976   -33.868763     14.73899   -17.832686   -1.7943625 
    4000   0.86410694   -33.877748    14.736432   -17.845553   -1.8149851 
    5000   0.88872741   -33.877105    14.710188   -17.834235     -1.73771 
    6000   0.88878961   -33.870947     14.71172   -17.826451     -1.78388 
    7000   0.90779063   -33.883523    14.688206   -17.834049   -1.7799592 
    8000   0.87317962   -33.875567    14.700172   -17.866027   -1.7149217 
    9000   0.90592483   -33.882506    14.691497   -17.832539   -1.7125619 
   10000   0.90463462   -33.869945    14.733487   -17.779922   -1.7208587 
   11000   0.89400857   -33.890603    14.688713   -17.861288   -1.7244303 
   12000   0.89307578   -33.885071    14.702418    -17.84345   -1.6968382 
   13000   0.88672919   -33.894634    14.704704   -17.860244   -1.7042447 
   14000   0.93279587    -33.89536    14.696909   -17.799686    -1.719108 
   15000   0.86523172   -33.896244      14.7072   -17.891595   -1.7129978 
   16000   0.88908499   -33.903499     14.69247    -17.87781   -1.7129781 
   17000   0.91549299   -33.892873    14.697847   -17.822208   -1.6889283 
   18000   0.88310172   -33.883938    14.685881    -17.87381   -1.6423902 
   19000   0.86274835   -33.898419    14.716061   -17.888633   -1.6116785 
   20000   0.89572781   -33.881822    14.687732    -17.85091   -1.6788072 
   21000   0.91702725   -33.909538    14.702651   -17.831768    -1.595761 
   22000   0.91035988   -33.905232    14.701937   -17.838174   -1.6942136 
   23000   0.88382769   -33.889888    14.704599   -17.859955   -1.6551417 
   24000   0.90883536   -33.899923    14.699225   -17.837862   -1.6319362 
   25000   0.90307475   -33.895707    14.701033   -17.840478   -1.6663004 
   26000   0.89874806   -33.906292     14.69021   -17.868373   -1.7462902 
   27000   0.88352423   -33.912113    14.693062   -17.894172   -1.7376216 
   28000   0.90234867   -33.904538    14.688254   -17.863176   -1.6731095 
   29000   0.89527884   -33.898491    14.708152   -17.847833   -1.6805525 
   30000   0.90120915   -33.906767    14.708161   -17.847207   -1.6091377 
   31000   0.90282427   -33.891804    14.668764   -17.869219   -1.7311312 
   32000   0.87160116    -33.91235    14.701812   -17.903537   -1.6562425 
   33000   0.88742116   -33.894527    14.692792   -17.871011    -1.699192 
   34000   0.92302669   -33.908108    14.684134   -17.839859   -1.6432859 
   35000   0.91900809   -33.913645    14.708573   -17.826982   -1.6621448 
   36000   0.88411222    -33.90327    14.696813   -17.880695   -1.6645903 
   37000   0.88321627   -33.904887    14.706608    -17.87386   -1.6765587 
   38000   0.87198903   -33.902581    14.701616   -17.893382   -1.7024943 
   39000    0.8976433   -33.904507    14.684003   -17.874451    -1.682703 
   40000   0.87509309   -33.900168     14.72185   -17.866082   -1.7004565 
   41000   0.88578468   -33.905372    14.670659   -17.906443   -1.7379304 
   42000   0.89500443   -33.894984    14.680631   -17.872259   -1.7610465 
   43000   0.88896188   -33.896108    14.724546   -17.838528   -1.6900391 
   44000   0.89147732   -33.907407    14.715554   -17.855047   -1.6362709 
   45000   0.91347547   -33.892789    14.698344   -17.824652   -1.7383474 
   46000   0.88683388   -33.915524    14.701169   -17.884511   -1.6595918 
   47000   0.87185707   -33.898882    14.704228    -17.88727   -1.6017289 
   48000   0.88496955   -33.908704    14.718216   -17.863441   -1.6673715 
   49000   0.89750125   -33.900387    14.708305   -17.846244   -1.6916084 
   50000   0.86278694   -33.892029    14.715636    -17.88261   -1.6705567 
   51000   0.88029047    -33.90042    14.688274   -17.892116   -1.7068715 
   52000   0.86575378   -33.896328    14.678759   -17.919337   -1.6104439 
   53000   0.89043489   -33.904435    14.682098   -17.887093   -1.7439206 
   54000   0.91005551   -33.898072    14.706371   -17.827036   -1.7722704 
   55000   0.86800111   -33.909166    14.697131   -17.910433   -1.6826715 
   56000   0.88451005   -33.907231     14.71805   -17.862823   -1.7165213 
   57000   0.88845014   -33.889467    14.717754   -17.839446    -1.683878 
   58000   0.91700021   -33.914592    14.705924   -17.833589   -1.5995194 
   59000   0.89019405    -33.90892    14.695211   -17.878828   -1.6319855 
   60000   0.87053192   -33.897872    14.680159   -17.912316    -1.674526 
   61000   0.88809321   -33.908205    14.688896   -17.887579   -1.7020187 
   62000   0.88727959   -33.917158    14.706699   -17.879947   -1.7420452 
   63000   0.88190632   -33.914607    14.716072   -17.876081    -1.682631 
   64000    0.8701215   -33.908039    14.700619   -17.902638   -1.6718081 
   65000   0.89470103   -33.908487    14.700639   -17.866208   -1.6977251 
   66000    0.8815089   -33.908558     14.69322    -17.89348   -1.6799723 
   67000   0.89120083   -33.912387    14.691952   -17.884044    -1.720958 
   68000   0.86980027   -33.905565     14.69586   -17.905405    -1.616754 
   69000   0.89067047   -33.921814     14.69353   -17.892688   -1.7131003 
   70000    0.9078384   -33.903132    14.680652   -17.861141    -1.626171 
   71000   0.90199071   -33.913409    14.686494   -17.874344   -1.7150157 
   72000   0.91497611   -33.916467    14.714589   -17.829835   -1.7785597 
   73000   0.87706231   -33.917776     14.70285   -17.899736   -1.7093977 
   74000   0.89089365   -33.920752    14.701459   -17.883362   -1.6549691 
   75000   0.91178424   -33.907797    14.717462   -17.823077    -1.703029 
   76000   0.87251712   -33.905764    14.691728   -17.905661   -1.6611985 
   77000   0.90172311   -33.904783    14.722214   -17.830399   -1.7474679 
   78000   0.86324121   -33.908479    14.690914     -17.9231   -1.7298286 
   79000   0.88521195   -33.901475    14.684087   -17.889978   -1.6916026 
   80000    0.9299988   -33.916215     14.69178   -17.829864    -1.641711 
   81000   0.90025378   -33.904833     14.69321   -17.861656    -1.650929 
   82000   0.90704433   -33.911869    14.684979   -17.866741   -1.6331528 
   83000   0.87222928    -33.91602    14.709152   -17.898925   -1.6999038 
   84000   0.89946708   -33.906927     14.69267    -17.86547   -1.7069561 
   85000   0.86752086    -33.89584    14.702567   -17.892391   -1.7041899 
   86000   0.86852717   -33.914994    14.703671   -17.908932   -1.7021196 
   87000   0.88717642    -33.91431    14.711694   -17.872259    -1.742105 
   88000   0.87740916   -33.910812    14.710027   -17.885075   -1.6831082 
   89000   0.88315282   -33.917685    14.695688   -17.897675   -1.6199786 
   90000   0.87266883   -33.910164    14.697864   -17.903699   -1.7533202 
   91000   0.89842031   -33.914925    14.723069   -17.844638   -1.6921003 
   92000   0.90348453   -33.917913    14.689499   -17.873603   -1.6953217 
   93000   0.89470047   -33.910625    14.696962   -17.872023   -1.7228113 
   94000   0.90379765    -33.90886    14.718375   -17.835205    -1.683116 
   95000   0.89577899     -33.8969     14.72063   -17.833014      -1.6453 
   96000   0.88962641   -33.915985    14.698614   -17.883341   -1.6774642 
   97000   0.88750565   -33.912802    14.702637   -17.879315   -1.6863379 
   98000   0.89665828   -33.897089    14.715489   -17.837025   -1.7077577 
   99000    0.8926967   -33.899038    14.673276   -17.887128   -1.7200695 
  100000   0.91270782   -33.926407     14.68065   -17.877115   -1.7058693 
  101000   0.87056471   -33.911713    14.680209   -17.926057   -1.6246642 
  102000   0.90498441    -33.89907    14.707481    -17.83453   -1.7803127 
  103000   0.89758508    -33.91699    14.687235    -17.88379    -1.659707 
  104000   0.91442438   -33.917648    14.685547   -17.860885   -1.7044868 
  105000   0.90166279   -33.900975    14.698185    -17.85071   -1.6921713 
  106000   0.90325201   -33.911572    14.696169   -17.860941    -1.699927 
  107000   0.88155504   -33.906237    14.688312   -17.895999   -1.7149514 
  108000   0.89224969   -33.912056    14.686719   -17.887373    -1.725775 
  109000   0.88980017   -33.910186    14.695186   -17.880709    -1.621286 
  110000   0.90102145   -33.911894    14.683282   -17.877494   -1.6910407 
  111000   0.87442853   -33.916427    14.697087     -17.9081   -1.6467796 
  112000   0.91548553   -33.908184    14.690227   -17.845149   -1.6863682 
  113000   0.90355728   -33.907566    14.688512   -17.864134   -1.6680151 
  114000   0.90185279   -33.928407     14.69959   -17.876453   -1.6893125 
  115000   0.89088437    -33.90526    14.700298   -17.869045   -1.6349565 
  116000   0.86886064     -33.9105    14.697095   -17.910514   -1.6481438 
  117000   0.92342443   -33.910034     14.67978   -17.845542   -1.6542946 
  118000   0.90026175   -33.914911    14.697579   -17.867353   -1.6855199 
  119000   0.88398664    -33.92098    14.713818   -17.881589   -1.7127003 
  120000   0.88006925   -33.902918    14.717485   -17.865735   -1.6932125 
  121000    0.8743398   -33.904539    14.704356   -17.889076   -1.6980676 
  122000   0.85872507   -33.897454    14.699586   -17.910175    -1.737841 
  123000    0.8845127   -33.903373    14.701402   -17.875609   -1.6581628 
  124000   0.88750228   -33.910396    14.724179   -17.855373   -1.6749134 
  125000   0.89355596   -33.910541    14.702833   -17.867785   -1.5847457 
  126000   0.88032301   -33.907432    14.706352   -17.881001   -1.6965628 
  127000   0.91446291   -33.912934    14.701933   -17.839728   -1.6660163 
  128000   0.88417411    -33.89932    14.698334   -17.875131   -1.6457177 
  129000   0.87803558   -33.907046    14.690389   -17.900008   -1.7348027 
  130000   0.86797013   -33.904701    14.721336   -17.881809   -1.7182181 
  131000   0.91058407   -33.896894    14.699748    -17.83169   -1.6859144 
  132000   0.89205344   -33.902452    14.683215   -17.881567   -1.6781034 
  133000   0.86912311   -33.916135    14.708141   -17.904709   -1.6754253 
  134000   0.89558009   -33.923803    14.702124    -17.87872   -1.6478518 
  135000   0.87543554   -33.905312    14.683989   -17.908573   -1.6075057 
  136000   0.89759677   -33.917823    14.699545   -17.872296    -1.602533 
  137000   0.88428584   -33.912613    14.691836   -17.894755   -1.7877273 
  138000   0.87686008    -33.90577    14.708844   -17.882039   -1.7269294 
  139000   0.88644519   -33.915987    14.659691   -17.927036   -1.6013836 
  140000   0.89854629   -33.915765    14.703623   -17.864736   -1.6537835 
  141000   0.90920632   -33.908882    14.690172   -17.855319   -1.6702306 
  142000   0.89390625   -33.920262    14.700305   -17.879509    -1.656349 
  143000   0.89958708   -33.909378    14.725604   -17.834807   -1.6962922 
  144000   0.89288024   -33.919618    14.703538   -17.877171   -1.7282405 
  145000   0.88940593   -33.916081    14.698308   -17.884074   -1.7384176 
  146000   0.91547974   -33.901016    14.702553   -17.825665   -1.7233431 
  147000   0.88067616   -33.929285    14.686739   -17.921938   -1.6894922 
  148000   0.89563796   -33.912317    14.713599   -17.855673   -1.6206314 
  149000    0.8899419   -33.900699     14.70288   -17.863316   -1.6621451 
  150000   0.91736711   -33.931077     14.71484   -17.840608    -1.606693 
  151000   0.92181192   -33.910946    14.675844   -17.852809   -1.7205812 
  152000    0.9001711   -33.906239     14.70621   -17.850186   -1.5980676 
  153000   0.89420028   -33.916973    14.708229   -17.867854    -1.672288 
  154000   0.89477778    -33.91154     14.70655   -17.863235   -1.7378752 
  155000   0.86993006   -33.912293    14.696141   -17.911657   -1.6553147 
  156000   0.88370238   -33.907407    14.709064   -17.873196    -1.738825 
  157000   0.88382827   -33.918051    14.691201   -17.901514   -1.6770574 
  158000   0.88019507   -33.917385    14.693841   -17.903657   -1.6387751 
  159000   0.90934126   -33.906952    14.684271   -17.859088   -1.6863787 
  160000    0.8879518   -33.906997    14.686195   -17.889282   -1.6170084 
  161000   0.89142351   -33.905467     14.69646   -17.872282   -1.7217069 
  162000   0.89712322   -33.902101    14.691435   -17.865394   -1.6934142 
  163000   0.90644735   -33.916408    14.694336   -17.862819   -1.7520811 
  164000   0.88589065   -33.919475    14.692857    -17.89819   -1.6746093 
  165000   0.90175112   -33.904599    14.670351   -17.882036   -1.7126096 
  166000   0.89565582   -33.898966     14.69875   -17.857145   -1.7172393 
  167000   0.87362544    -33.90559    14.707728   -17.887826   -1.6457375 
  168000   0.86238154     -33.9052     14.70165   -17.910375    -1.731271 
  169000   0.88978508   -33.895488    14.694689   -17.866531   -1.6266282 
  170000   0.90076127   -33.911644    14.704589   -17.856327    -1.561667 
  171000   0.87349237   -33.908939    14.701083    -17.89802   -1.7044021 
  172000   0.86538928   -33.913401    14.705957   -17.909758   -1.6745025 
  173000   0.90700271   -33.903413    14.684516    -17.85881   -1.6912536 
  174000   0.87305899   -33.893249    14.690663   -17.893399   -1.6907897 
  175000   0.90039573   -33.919725    14.717959   -17.851587    -1.742842 
  176000   0.86514638    -33.90418    14.707881   -17.898978   -1.6827058 
  177000   0.88577211   -33.898105    14.693451   -17.876404   -1.6317054 
  178000   0.89138205   -33.901077    14.682291   -17.882123   -1.5673719 
  179000   0.86786458    -33.91738    14.708833    -17.90715   -1.6568192 
  180000   0.88765321   -33.918001    14.703448   -17.883482   -1.7572725 
  181000   0.88709886   -33.903962    14.704726   -17.868996   -1.6829756 
  182000   0.91026682   -33.910045    14.686175   -17.858889   -1.6630424 
  183000    0.9040751   -33.925876    14.695745   -17.874435   -1.6812866 
  184000   0.92662756   -33.908823    14.691896   -17.827412   -1.6656878 
  185000   0.88080685   -33.905167    14.682572    -17.90179   -1.6648051 
  186000   0.90375109   -33.916083    14.688323   -17.872548   -1.6881852 
  187000   0.87795051   -33.913276    14.682072   -17.914682   -1.6741423 
  188000   0.88324844   -33.904521    14.685381   -17.894674   -1.6252762 
  189000   0.90068828   -33.900809    14.661557   -17.888635   -1.6623131 
  190000   0.91638812   -33.906454     14.69466   -17.837634   -1.7025161 
  191000   0.90904665   -33.903893    14.692318   -17.848423   -1.7494724 
  192000   0.86877627   -33.905678    14.695049   -17.907864    -1.654028 
  193000   0.87225402   -33.913774    14.711441   -17.894354   -1.6773698 
  194000   0.87885429   -33.909435    14.694268    -17.89729   -1.7004469 
  195000    0.9102815   -33.912757    14.669167   -17.878586   -1.6157748 
  196000   0.92533492   -33.916326    14.701098   -17.827651   -1.6048054 
  197000   0.90885964   -33.917224    14.702596   -17.851757    -1.701735 
  198000   0.91682624   -33.922957    14.712231   -17.835909   -1.6932791 
  199000    0.8744322   -33.924831    14.695947   -17.917638      -1.6344 
  200000   0.87327072   -33.906774    14.717281   -17.879989   -1.7359878 
  201000   0.87637887   -33.919048    14.688231   -17.916652   -1.6828271 
  202000   0.90331511   -33.913773    14.706976    -17.85224   -1.7018448 
  203000   0.87743058   -33.908219    14.689928   -17.902549    -1.586925 
  204000    0.8738846   -33.907596     14.70161   -17.895561   -1.6354477 
  205000   0.89708997   -33.921726    14.686904     -17.8896   -1.6636314 
  206000   0.88798823   -33.893766    14.700218   -17.861974   -1.6161773 
  207000   0.89181737   -33.905358    14.705343   -17.862699   -1.7367771 
  208000   0.89211154   -33.923029    14.690319   -17.894953   -1.6403744 
  209000   0.88883511   -33.910093    14.693353   -17.883896   -1.6449633 
  210000   0.90471931   -33.910869    14.679449   -17.874757   -1.7374649 
  211000   0.89493695   -33.904334    14.682904   -17.879436   -1.7249407 
  212000   0.89794456   -33.908461    14.702793   -17.859164   -1.6638024 
  213000   0.88919892    -33.90622    14.705424   -17.867406   -1.6457943 
  214000   0.89967974   -33.904608    14.677987   -17.877515    -1.700302 
  215000   0.87804665   -33.909329    14.695353   -17.897309   -1.7378768 
  216000    0.8980453   -33.917252    14.727231   -17.843366    -1.564207 
  217000   0.86884661   -33.920645    14.713728   -17.904047   -1.7161623 
  218000     0.895372    -33.89414    14.695905   -17.855588   -1.6753768 
  219000   0.90045624   -33.912039    14.691133   -17.870635     -1.66474 
  220000     0.881777    -33.90466    14.690535   -17.891865   -1.7282775 
  221000   0.88202281   -33.902675    14.688653   -17.891393   -1.6785945 
  222000   0.90874548   -33.909583    14.695702   -17.851181   -1.6555286 
  223000   0.87966455   -33.915665    14.692774   -17.903799   -1.6525231 
  224000   0.87867387   -33.914211    14.711045   -17.885559    -1.742645 
  225000   0.89450052   -33.910122    14.673623    -17.89516   -1.6936192 
  226000   0.87200033   -33.908216    14.703183   -17.897433   -1.6673455 
  227000   0.89221858   -33.905193    14.700402   -17.866873   -1.6303738 
  228000   0.88617289   -33.902562    14.695473   -17.878238   -1.8163192 
  229000   0.92323253   -33.910495    14.705127   -17.820944   -1.6624045 
  230000   0.90296573   -33.905583    14.705705   -17.845845   -1.6718421 
  231000    0.9253631    -33.92081    14.679663   -17.853529   -1.7470059 
  232000   0.86465461   -33.913697    14.690287   -17.926826   -1.7435094 
  233000   0.89725376   -33.908117    14.714533   -17.848117   -1.7038272 
  234000   0.87401145   -33.915959    14.703987   -17.901357   -1.7283297 
  235000   0.87541786   -33.907965    14.685919   -17.909322   -1.7446419 
  236000   0.89352414   -33.896906    14.708792   -17.848239   -1.6876096 
  237000   0.88329679   -33.903096    14.679262   -17.899295   -1.7546976 
  238000   0.89849827   -33.918237    14.713571   -17.857332   -1.6833295 
  239000   0.89222824   -33.904283    14.695752   -17.870599     -1.76735 
  240000   0.88446656   -33.904698    14.692431   -17.885974   -1.6705691 
  241000    0.8761917   -33.907252    14.692164   -17.901204   -1.7496474 
  242000   0.91387919   -33.898982     14.66938   -17.859204   -1.7385077 
  243000   0.88202133   -33.911817    14.705059   -17.884132   -1.6648774 
  244000   0.87033314   -33.897969    14.711114   -17.881756    -1.683778 
  245000    0.9010526   -33.905095    14.716383   -17.837548    -1.671272 
  246000   0.90822933   -33.911383     14.70209   -17.847367   -1.6581222 
  247000   0.87333329   -33.918144    14.726309   -17.882237   -1.7557557 
  248000    0.8929122    -33.92472    14.705738   -17.880025   -1.7074014 
  249000   0.89392539     -33.9067    14.697312   -17.868911   -1.6524085 
  250000    0.8759857   -33.909524    14.687498    -17.90845    -1.699657 
  251000   0.88896712   -33.910045    14.689402   -17.887601   -1.7017803 
  252000   0.89103853   -33.895974    14.698486    -17.86134   -1.6952628 
  253000   0.89017536   -33.905846    14.703176   -17.867817   -1.7345998 
  254000   0.90426808   -33.902188    14.714622    -17.83158   -1.7512123 
  255000   0.89263216   -33.900935    14.706752   -17.855646   -1.5590297 
  256000   0.89222751   -33.912639    14.686201   -17.888508   -1.6834835 
  257000   0.90716877   -33.923777    14.672093   -17.891349   -1.6407948 
  258000   0.89144666   -33.906273    14.687647   -17.881866   -1.6858279 
  259000   0.88388478   -33.914971    14.712448   -17.877103   -1.6430195 
  260000   0.85981249   -33.921464    14.707752   -17.924389   -1.6487323 
  261000   0.89554659   -33.915668    14.714106   -17.858654   -1.6583918 
  262000   0.87835648   -33.904372    14.686376   -17.900866   -1.7007339 
  263000   0.89600943   -33.922372    14.703131   -17.875639   -1.7160939 
  264000   0.89734562   -33.899345    14.688429    -17.86531   -1.6848709 
  265000   0.88994344   -33.900161    14.698084   -17.867572   -1.6589032 
  266000   0.88857443     -33.9269    14.715328    -17.87912   -1.6951517 
  267000   0.88808118   -33.916655    14.683855   -17.901087   -1.6211442 
  268000   0.90903448   -33.914969    14.692741   -17.859095   -1.7618801 
  269000   0.87015079   -33.911747    14.694538   -17.912384   -1.6142643 
  270000   0.89461304   -33.922214    14.690984   -17.889722   -1.6313828 
  271000   0.88878364   -33.909077    14.697461   -17.878849   -1.6707232 
  272000   0.88554948   -33.922263    14.691593   -17.902753   -1.6994553 
  273000   0.87057433   -33.904584    14.702173    -17.89695   -1.6791122 
  274000   0.89744479    -33.91407    14.689367   -17.878949   -1.6436858 
  275000   0.91361854   -33.905958    14.697719   -17.838231   -1.6205105 
  276000   0.90676835   -33.905856    14.706767   -17.839354   -1.6073275 
  277000   0.90516063   -33.905328    14.707392   -17.840611   -1.6530852 
  278000   0.89528035   -33.925092    14.700533    -17.88205    -1.697181 
  279000   0.90055339   -33.918591    14.687615   -17.880561   -1.7054075 
  280000   0.86608771   -33.907739    14.728924   -17.880081   -1.5790881 
  281000   0.89365609   -33.898772    14.696219    -17.86248   -1.6509271 
  282000   0.89995285   -33.910098    14.680702    -17.87988   -1.6298634 
  283000   0.90033555   -33.909635    14.691718   -17.867828    -1.619953 
  284000   0.85468846   -33.905094    14.715677   -17.907777   -1.7423876 
  285000   0.89697229   -33.908201     14.68256   -17.880595   -1.6886904 
  286000   0.86942048   -33.923892    14.701902    -17.91826   -1.6573874 
  287000   0.90188274   -33.916997    14.692682   -17.871906   -1.7346967 
  288000   0.91135068   -33.907777    14.690314   -17.850856   -1.6379063 
  289000   0.87528246   -33.915133    14.678344   -17.924268   -1.7131324 
  290000   0.89653945   -33.904801    14.692269   -17.868135   -1.6891986 
  291000   0.86955911   -33.915568    14.698515   -17.913115   -1.6908014 
  292000   0.88732768   -33.906271    14.703183   -17.872504   -1.6795054 
  293000   0.88223519   -33.908762    14.687919   -17.897896   -1.6875131 
  294000   0.89845181   -33.911107    14.729562   -17.834281   -1.6915549 
  295000   0.93431739   -33.911039    14.707366   -17.802627   -1.6810564 
  296000    0.8699594   -33.923469    14.724912   -17.894017   -1.7445414 
  297000   0.91765339   -33.903663    14.685471   -17.842134   -1.6538499 
  298000   0.89517183   -33.909289    14.699238   -17.867706   -1.6002377 
  299000   0.90454289   -33.913315    14.687885   -17.869032   -1.6883585 
  300000   0.90574543   -33.917094     14.67548   -17.883412   -1.6884393 
Loop time of 147.793 on 1 procs for 300000 steps with 3260 atoms

Performance: 350759.858 tau/day, 2029.860 timesteps/s
99.9% CPU use with 1 MPI tasks x no OpenMP threads

MPI task timing breakdown:
Section |  min time  |  avg time  |  max time  |%varavg| %total
---------------------------------------------------------------
Pair    | 29.562     | 29.562     | 29.562     |   0.0 | 20.00
Bond    | 13.282     | 13.282     | 13.282     |   0.0 |  8.99
Neigh   | 47.587     | 47.587     | 47.587     |   0.0 | 32.20
Comm    | 3.8313     | 3.8313     | 3.8313     |   0.0 |  2.59
Output  | 1.069      | 1.069      | 1.069      |   0.0 |  0.72
Modify  | 49.925     | 49.925     | 49.925     |   0.0 | 33.78
Other   |            | 2.538      |            |       |  1.72

Nlocal:    3260 ave 3260 max 3260 min
Histogram: 1 0 0 0 0 0 0 0 0 0
Nghost:    1463 ave 1463 max 1463 min
Histogram: 1 0 0 0 0 0 0 0 0 0
Neighs:    4938 ave 4938 max 4938 min
Histogram: 1 0 0 0 0 0 0 0 0 0

Total # of neighbors = 4938
Ave neighs/atom = 1.51472
Ave special neighs/atom = 1.41043
Neighbor list builds = 17939
Dangerous builds = 59
reset_timestep  0

# measure brush profile
fix             4 chain ave/histo 1000 200 200000 0 30 50 z file rho.txt mode vector ave running
fix             5 end ave/histo 1000 200 200000 0 30 50 z file ends.txt mode vector ave running
run             200000
Per MPI rank memory allocation (min/avg/max) = 6.201 | 6.201 | 6.201 Mbytes
Step Temp E_pair E_mol TotEng Press 
       0   0.90574543   -33.917094     14.67548   -17.883412   -1.6884393 
    1000   0.88028762   -33.909901     14.69798   -17.891894    -1.740236 
    2000   0.90414677   -33.916049    14.678548   -17.881696   -1.7622915 
    3000   0.89591261   -33.900255     14.73088   -17.825919   -1.7338571 
    4000   0.91121766   -33.908214    14.684029   -17.857778   -1.7002125 
    5000   0.86099585   -33.911651    14.687545   -17.933008    -1.790295 
    6000   0.90519383   -33.913466    14.699634   -17.856457   -1.6610337 
    7000   0.88952391   -33.904539    14.711233    -17.85943   -1.6194894 
    8000   0.92897567     -33.9131    14.688737   -17.831327   -1.5942485 
    9000   0.90804267   -33.918901    14.685701   -17.871554   -1.7020467 
   10000   0.84575814   -33.908828    14.696487   -17.944093   -1.6747853 
   11000   0.86849916   -33.909839    14.704028   -17.903461   -1.6690973 
   12000   0.89274528   -33.912719    14.697143   -17.876869   -1.6848743 
   13000   0.90476148   -33.919722    14.688519   -17.874476   -1.6645463 
   14000   0.89237944   -33.908871    14.721162    -17.84955   -1.6617335 
   15000   0.90900779   -33.909424    14.711774   -17.834557   -1.7971156 
   16000   0.86144994   -33.915199    14.681591    -17.94183   -1.6931723 
   17000   0.90172503   -33.901728    14.706988   -17.842567   -1.7582266 
   18000   0.90108782   -33.891321    14.706386   -17.833718    -1.715397 
   19000   0.88284344   -33.903219    14.700515   -17.878845   -1.6574433 
   20000   0.90887697   -33.930675    14.707006   -17.860772   -1.6943499 
   21000   0.86899276   -33.908802     14.69073   -17.914983   -1.5634458 
   22000   0.87612445   -33.912678    14.683073   -17.915821   -1.7296003 
   23000   0.88514355   -33.906055    14.679519   -17.899228    -1.683148 
   24000   0.88666032   -33.909136    14.678182   -17.901371   -1.7657498 
   25000   0.89470691   -33.908851    14.702732    -17.86447   -1.6712266 
   26000   0.86375807   -33.911093    14.690212   -17.925641   -1.7614425 
   27000     0.874886   -33.906413    14.692908   -17.901579   -1.8154287 
   28000   0.91021111   -33.900195    14.682881   -17.852416   -1.7342015 
   29000   0.88554137   -33.903373     14.68449   -17.890979   -1.7270144 
   30000   0.88873368   -33.903062     14.67222    -17.89815   -1.6666499 
   31000   0.89119351   -33.917485    14.689458   -17.891646   -1.6328764 
   32000   0.87495134    -33.91373    14.692266    -17.90944   -1.6545059 
   33000   0.88738513   -33.911993    14.699328   -17.881995   -1.6659721 
   34000   0.91836758   -33.908359    14.680216   -17.851014    -1.618212 
   35000   0.87199594    -33.91708    14.716328   -17.893159   -1.6836832 
   36000    0.8894388   -33.900961    14.703619   -17.863593   -1.7172107 
   37000   0.89551755   -33.906663     14.68417   -17.879629    -1.694208 
   38000   0.89598713   -33.906099    14.705111   -17.857421   -1.6567381 
   39000   0.86421648   -33.906307     14.68936    -17.92102   -1.6603506 
   40000   0.88803467   -33.897106    14.691149   -17.874314   -1.6778466 
   41000   0.88784997   -33.895844    14.693383   -17.871094   -1.7781342 
   42000   0.88945374     -33.9157    14.689939    -17.89199   -1.7251282 
   43000   0.88181857   -33.905397    14.697665    -17.88541   -1.7182559 
   44000   0.91985671   -33.923365    14.689159   -17.854845     -1.62635 
   45000   0.90326079   -33.912808    14.692469   -17.865864   -1.6857795 
   46000   0.88277655   -33.889033    14.691129   -17.874145   -1.6176813 
   47000   0.89109837   -33.901554    14.701722   -17.863594   -1.6265541 
   48000   0.88429043    -33.91943    14.704284   -17.889117   -1.6908347 
   49000   0.89694012   -33.912421    14.705626   -17.861798   -1.7430403 
   50000   0.89277074   -33.903497    14.692227   -17.872525   -1.5900951 
   51000   0.88472464   -33.907894    14.697728   -17.883486   -1.6712475 
   52000   0.89271731    -33.92154    14.687661   -17.895213   -1.6985686 
   53000   0.86974671   -33.911742    14.685477   -17.922045   -1.6666651 
   54000    0.8746657   -33.909304    14.688964   -17.908744   -1.6924214 
   55000   0.88709307   -33.910211    14.707812   -17.872167   -1.6500249 
   56000   0.90717431   -33.918191    14.690615   -17.867232   -1.7295314 
   57000   0.89677028   -33.912265    14.711288   -17.856235   -1.6774834 
   58000   0.91408924    -33.91492    14.702418   -17.841789   -1.7423993 
   59000   0.88055595   -33.898159    14.678367   -17.899364   -1.6574768 
   60000   0.89524303   -33.908106    14.678275   -17.887379    -1.639754 
   61000   0.91965561   -33.895976    14.682237   -17.834679   -1.6871425 
   62000   0.88625699   -33.907854    14.678433   -17.900444   -1.7116281 
   63000   0.86303607   -33.910154     14.70816   -17.907837   -1.7119765 
   64000   0.89482007     -33.9048    14.675647   -17.887335   -1.6410728 
   65000   0.86684247   -33.917615    14.691372   -17.926378   -1.7392901 
   66000   0.87716589   -33.914892    14.685325   -17.914222   -1.6944396 
   67000   0.89259115   -33.905852    14.699835   -17.867541   -1.6724801 
   68000   0.90043059   -33.914302    14.701266   -17.862804   -1.6177979 
   69000   0.87026231   -33.910485    14.699013   -17.906479   -1.6764766 
   70000   0.88134571   -33.893275    14.685984   -17.885678   -1.6504091 
   71000   0.88880878   -33.908484    14.694855   -17.880825    -1.556687 
   72000   0.86072402   -33.907963    14.701556   -17.915718   -1.6734705 
   73000   0.87254604   -33.905008    14.700258   -17.896333   -1.6288455 
   74000   0.86090872   -33.910849    14.690436   -17.929446   -1.6456218 
   75000   0.90634176   -33.910493    14.712683   -17.838714    -1.661852 
   76000   0.90627211   -33.916856    14.700439   -17.857426   -1.7040453 
   77000     0.893987   -33.909674      14.6886   -17.880505   -1.6113855 
   78000    0.9040924   -33.920339    14.724672   -17.839944   -1.7093231 
   79000   0.86953713   -33.914138    14.687546   -17.922687   -1.7183792 
   80000   0.90163833   -33.906736    14.703279   -17.851415   -1.6873637 
   81000   0.90216199   -33.915474    14.708318   -17.854328   -1.6914807 
   82000   0.90782832   -33.913283    14.701342   -17.850616     -1.68131 
   83000   0.88459763   -33.909234    14.713498   -17.869247   -1.7110399 
   84000   0.87971721   -33.918987    14.686418   -17.913397   -1.7574709 
   85000   0.89277866   -33.917277    14.692149    -17.88637    -1.660507 
   86000   0.89986931   -33.910717    14.715559   -17.845768   -1.7054002 
   87000   0.87603607   -33.910027    14.684051   -17.912326   -1.5963296 
   88000   0.85787551   -33.911695    14.683666    -17.94161   -1.6722616 
   89000   0.88481289     -33.9047    14.713163   -17.864725   -1.6615487 
   90000   0.93112619   -33.908358    14.706525   -17.805572   -1.7582827 
   91000   0.90885016    -33.91262    14.684495   -17.865268   -1.6374657 
   92000   0.88081637   -33.918933    14.709106   -17.889008   -1.6543524 
   93000   0.89249234    -33.92048    14.668971   -17.913181   -1.6365346 
   94000   0.89832383   -33.914319    14.694712   -17.872534   -1.6829784 
   95000   0.89205568   -33.912612    14.679451   -17.895489   -1.6440609 
   96000   0.90960659   -33.912588    14.692313   -17.856284    -1.726556 
   97000   0.86570434   -33.914717    14.686165   -17.930393   -1.6906422 
   98000   0.88995796   -33.916627    14.676683   -17.905417   -1.6936627 
   99000   0.87910625   -33.918133    14.692603   -17.907275   -1.7034306 
  100000   0.88701611   -33.905555    14.690189   -17.885251   -1.7242579 
  101000   0.88514821   -33.918755    14.683401   -17.908039   -1.6635459 
  102000   0.88942674   -33.905933     14.67821   -17.893993   -1.7368617 
  103000   0.91645725   -33.913676    14.700465   -17.838947   -1.6586014 
  104000   0.87742332   -33.924652    14.682193   -17.926728    -1.617234 
  105000   0.88099901   -33.896561    14.702605   -17.872862   -1.6921351 
  106000   0.88854983   -33.912559    14.680732    -17.89941   -1.6302373 
  107000   0.89687791   -33.910799    14.693456   -17.872439   -1.6526497 
  108000    0.9043417   -33.905906     14.69052   -17.859289   -1.6741875 
  109000   0.89735407   -33.917675    14.684332   -17.887724   -1.7389322 
  110000   0.88353891   -33.898707    14.685139   -17.888667   -1.5997004 
  111000   0.88894976   -33.902813    14.701653   -17.868145     -1.66049 
  112000   0.89769989   -33.922394    14.705414   -17.870843   -1.6622932 
  113000   0.89709031    -33.90158    14.719586   -17.836771   -1.5884696 
  114000   0.89181379   -33.912099    14.701419    -17.87337   -1.6441251 
  115000   0.89816524   -33.928117    14.691515   -17.889768    -1.747467 
  116000   0.90023502   -33.909502    14.687999   -17.871565   -1.7430822 
  117000   0.89630897   -33.910582    14.702724   -17.863807   -1.6706171 
  118000   0.90938551   -33.899823    14.709042   -17.827121    -1.725499 
  119000   0.88649372   -33.917937    14.703046   -17.885558   -1.7455545 
  120000   0.88568038    -33.90535    14.684091   -17.893146   -1.6911889 
  121000   0.88813436   -33.903264    14.690706   -17.880765   -1.6038274 
  122000   0.87458569   -33.918783    14.689921   -17.917386   -1.6959747 
  123000   0.88011859   -33.910436     14.68005   -17.910613     -1.64392 
  124000   0.90816574   -33.920431    14.692515   -17.866085   -1.6633465 
  125000   0.91586269   -33.925359    14.689726   -17.862261   -1.6922078 
  126000   0.89880706   -33.915264    14.700784   -17.866684   -1.6524878 
  127000     0.899442   -33.908366    14.688778   -17.870838   -1.6900587 
  128000   0.91396732   -33.899538    14.680551   -17.848457   -1.6492328 
  129000   0.91603689   -33.914686    14.700109   -17.840942   -1.7115097 
  130000   0.89807556   -33.896214    14.702662   -17.846852   -1.7039126 
  131000   0.87435441   -33.911687    14.693174   -17.907383   -1.6443834 
  132000   0.89807207   -33.909312    14.689279   -17.873338   -1.6295122 
  133000   0.89376969   -33.909044    14.695643   -17.873158   -1.6210873 
  134000   0.87900579    -33.90685    14.695771   -17.892974   -1.6808458 
  135000   0.89962465   -33.912409    14.702992   -17.860394   -1.6631446 
  136000   0.90600358   -33.901542    14.681993    -17.86096   -1.6704908 
  137000   0.90046467   -33.913095    14.698419   -17.864393   -1.6493812 
  138000   0.88995365   -33.900215    14.710469   -17.855224    -1.584855 
  139000   0.88677015   -33.922237    14.705103   -17.887386   -1.7015189 
  140000   0.89480296   -33.911588    14.702295     -17.8675   -1.6985935 
  141000   0.87231307   -33.911959     14.70436   -17.899531   -1.7682377 
  142000   0.89332577   -33.913743    14.684914   -17.889251   -1.7159859 
  143000   0.89669667   -33.920845    14.705402    -17.87081   -1.6392251 
  144000   0.88236625   -33.914233    14.725355   -17.865734   -1.6586675 
  145000   0.86209536   -33.907641    14.693901   -17.920994   -1.7533701 
  146000   0.88528153   -33.905928    14.709692    -17.86872   -1.7494892 
  147000   0.88713855   -33.906382    14.690221   -17.885861   -1.6233704 
  148000   0.89801626   -33.901581    14.728214   -17.826756   -1.6367564 
  149000   0.90772174   -33.921268    14.687918   -17.872185   -1.6372268 
  150000   0.88818205   -33.915374    14.689736   -17.893774   -1.6320914 
  151000   0.91208584   -33.913394    14.695382   -17.850303   -1.6649514 
  152000   0.86424871   -33.915221    14.705664   -17.913581   -1.6953192 
  153000   0.87829096   -33.920551    14.710756   -17.892763   -1.6875641 
  154000   0.91177857   -33.910503    14.704089   -17.839165   -1.7486729 
  155000   0.90965991   -33.906898    14.695692   -17.847135   -1.7296317 
  156000   0.88309592   -33.924619    14.709874   -17.890507   -1.7076624 
  157000   0.89587478   -33.902488    14.681244   -17.877844   -1.6462739 
  158000   0.90060616   -33.905567     14.70614   -17.848932   -1.6878032 
  159000   0.86896686   -33.929563    14.688546   -17.937967   -1.6601141 
  160000   0.88545269   -33.910061    14.683282   -17.899008   -1.6760915 
  161000   0.87382258   -33.909722     14.69802   -17.901371   -1.6703675 
  162000    0.8884492   -33.918191    14.703017   -17.882908   -1.7017367 
  163000   0.89855376   -33.910754    14.701523   -17.861814   -1.6139814 
  164000   0.87751811   -33.914933    14.690529   -17.908531   -1.6483584 
  165000    0.9311817   -33.912362    14.687022   -17.828996   -1.6620503 
  166000   0.88793281   -33.912023    14.702797   -17.877735   -1.6915021 
  167000   0.90758004   -33.903842    14.688532   -17.854358    -1.691331 
  168000   0.88849223   -33.909794    14.702384   -17.875081   -1.7491843 
  169000   0.89807479   -33.920939    14.704472   -17.869768   -1.7537047 
  170000   0.92085497   -33.906663    14.700188   -17.825616   -1.6928502 
  171000   0.89890977   -33.908218    14.717898   -17.842369   -1.7158392 
  172000   0.87922712   -33.921798    14.684617   -17.918745   -1.6643289 
  173000   0.91971406   -33.904828    14.696407   -17.829273   -1.6726656 
  174000   0.89065623   -33.909807    14.712104   -17.862128    -1.677686 
  175000   0.88210286   -33.920962     14.70473   -17.893484   -1.6852614 
  176000   0.88970794   -33.912714    14.693719   -17.884842   -1.6683434 
  177000   0.88931954    -33.91663    14.724609   -17.858451   -1.7116934 
  178000   0.90672907   -33.924226    14.679306   -17.885244   -1.6520529 
  179000    0.8931665   -33.915338    14.704118   -17.871882   -1.7036814 
  180000   0.89705787   -33.906056    14.690546   -17.870336   -1.7212623 
  181000   0.88248006   -33.915667    14.691473   -17.900879   -1.6119747 
  182000   0.90041039   -33.911365    14.673828   -17.887336   -1.6855564 
  183000   0.87558298   -33.905911    14.706957   -17.885983    -1.653448 
  184000   0.90793271   -33.905963    14.689905   -17.854577   -1.7505217 
  185000   0.89680535   -33.901608    14.691932    -17.86488   -1.7060227 
  186000   0.88722344   -33.916019    14.675185   -17.910407   -1.6835143 
  187000   0.88677466   -33.918409    14.715846   -17.872808   -1.6668011 
  188000   0.90746585    -33.90416    14.703654   -17.839725   -1.6690993 
  189000   0.89214178   -33.915886    14.686088   -17.891996   -1.7347268 
  190000    0.9018972   -33.907338    14.699596   -17.855311   -1.7587126 
  191000   0.88666772   -33.900822    14.700072   -17.871156   -1.7557099 
  192000    0.8725978   -33.911402    14.692479   -17.910428    -1.679657 
  193000   0.86717706   -33.918763    14.698043   -17.920354   -1.6691925 
  194000   0.89832819   -33.918749    14.681189   -17.890481   -1.6737158 
  195000   0.88133394   -33.919911    14.694201   -17.904114   -1.6523091 
  196000   0.85132769   -33.916745    14.709706   -17.930438   -1.7331219 
  197000   0.90374313   -33.910748    14.714807   -17.840741   -1.7116813 
  198000   0.89654406    -33.90369    14.692438   -17.866849   -1.7840011 
  199000   0.88963405   -33.912587    14.719228   -17.859317   -1.6537859 
  200000   0.89289485   -33.906788    14.708633   -17.859223   -1.6242491 
Loop time of 99.0728 on 1 procs for 200000 steps with 3260 atoms

Performance: 348834.417 tau/day, 2018.718 timesteps/s
99.9% CPU use with 1 MPI tasks x no OpenMP threads

MPI task timing breakdown:
Section |  min time  |  avg time  |  max time  |%varavg| %total
---------------------------------------------------------------
Pair    | 19.976     | 19.976     | 19.976     |   0.0 | 20.16
Bond    | 8.8642     | 8.8642     | 8.8642     |   0.0 |  8.95
Neigh   | 31.99      | 31.99      | 31.99      |   0.0 | 32.29
Comm    | 2.5518     | 2.5518     | 2.5518     |   0.0 |  2.58
Output  | 0.70904    | 0.70904    | 0.70904    |   0.0 |  0.72
Modify  | 33.293     | 33.293     | 33.293     |   0.0 | 33.60
Other   |            | 1.689      |            |       |  1.70

Nlocal:    3260 ave 3260 max 3260 min
Histogram: 1 0 0 0 0 0 0 0 0 0
Nghost:    1399 ave 1399 max 1399 min
Histogram: 1 0 0 0 0 0 0 0 0 0
Neighs:    4951 ave 4951 max 4951 min
Histogram: 1 0 0 0 0 0 0 0 0 0

Total # of neighbors = 4951
Ave neighs/atom = 1.51871
Ave special neighs/atom = 1.41043
Neighbor list builds = 11948
Dangerous builds = 0
write_data      brush_eq.data
Total wall time: 0:04:06
