LAMMPS (3 Mar 2020)
# Single Chain in Solvent/CoSolvent
units		lj
atom_style	bond
boundary        p p p
timestep	0.005

pair_style      lj/cut 2.5
bond_style	fene

read_data       chain.data
  orthogonal box = (-5.77581 -5.77581 -5.77581) to (5.77581 5.77581 5.77581)
  1 by 1 by 1 MPI processor grid
  reading atoms ...
  6830 atoms
  reading velocities ...
  6830 velocities
  scanning bonds ...
  1 = max bonds/atom
  reading bonds ...
  29 bonds
  2 = max # of 1-2 neighbors
  2 = max # of 1-3 neighbors
  4 = max # of 1-4 neighbors
  6 = max # of special neighbors
  special bonds CPU = 0.0011158 secs
  read_data CPU = 0.019722 secs

pair_coeff      1 1  1.0  1.00  1.12246
pair_coeff      1 2  0.5  0.75  1.87500
pair_coeff      1 3  1.0  0.75  1.87500
pair_coeff      2 2  1.0  0.50  0.56123
pair_coeff      2 3  1.0  0.50  0.56123
pair_coeff      3 3  1.0  0.50  0.56123

bond_coeff	1 30.0 1.5 1.0 1.0
special_bonds	fene
  2 = max # of 1-2 neighbors
  6 = max # of special neighbors
  special bonds CPU = 0.000662088 secs

group polymer 	type 1
30 atoms in group polymer
group solvent 	type 2
6800 atoms in group solvent
group cosolvent type 3
0 atoms in group cosolvent

velocity        all create 0.5 1337 dist gaussian

### add suitable fix(es) for time integration and thermostatting
fix             1 all nve
fix             2 all langevin 0.5 0.5 1.0 4129571

thermo          1000
run     	200000 ### enter equilibration time
Neighbor list info ...
  update every 1 steps, delay 10 steps, check yes
  max neighbors/atom: 2000, page size: 100000
  master list distance cutoff = 2.175
  ghost atom cutoff = 2.175
  binsize = 1.0875, bins = 11 11 11
  1 neighbor lists, perpetual/occasional/extra = 1 0 0
  (1) pair lj/cut, perpetual
      attributes: half, newton on
      pair build: half/bin/newton
      stencil: half/bin/3d/newton
      bin: standard
Per MPI rank memory allocation (min/avg/max) = 8.586 | 8.586 | 8.586 Mbytes
Step Temp E_pair E_mol TotEng Press 
       0          0.5  -0.71487228  0.086324675   0.12134259      10.1011 
    1000   0.49846475  -0.71227219  0.087003069   0.12231853    10.086704 
    2000    0.4962006  -0.69893325  0.086751371   0.13201004    10.169338 
    3000   0.50455405  -0.70074093  0.086728202   0.14270754    10.190237 
    4000   0.50523154  -0.71695814  0.086342971   0.12712118     10.09424 
    5000   0.49667259  -0.69325349  0.086857076   0.13850339    10.286375 
    6000   0.49699368  -0.70914585  0.086953893   0.12318941     10.17384 
    7000   0.49704273  -0.69947926  0.086653975   0.13262965    10.337231 
    8000   0.50177787  -0.69791815  0.087025219   0.14166367    10.255907 
    9000   0.50479251  -0.71027798  0.086632724   0.13343264    10.222412 
   10000   0.49960943  -0.69099338  0.087262645   0.14557369     10.07368 
   11000   0.49735935  -0.68894752   0.08691265   0.14389492    10.120392 
   12000    0.5113898  -0.71535711  0.086798598   0.13841387    10.151149 
   13000   0.49086614  -0.69784973  0.086693308   0.12503498    10.120725 
   14000   0.51169837  -0.70163164   0.08683723   0.15264076    10.249927 
   15000   0.49678518   -0.6944945  0.087028104   0.13760228    9.9561757 
   16000   0.49720795  -0.68579029  0.086661372   0.14657381    10.103867 
   17000   0.50145368  -0.69772112  0.086623504   0.14097278    10.278009 
   18000   0.50618558  -0.70457841  0.087133042   0.14172184    10.293779 
   19000   0.49252235  -0.69770547  0.086677815   0.12764771    10.030891 
   20000   0.49998395  -0.70916586  0.087079105   0.12777936    10.329482 
   21000   0.49697125  -0.69854785  0.086510937   0.13331082    10.221971 
   22000   0.50201753    -0.701058   0.08704319   0.13890124    10.288159 
   23000   0.50508388  -0.68582137  0.086642296   0.15833582    10.209991 
   24000   0.50456517  -0.69261804  0.087621719   0.15174062    10.106075 
   25000   0.50467215   -0.7041147   0.08627052   0.13905321    10.187078 
   26000   0.51164945  -0.69819009  0.086681182   0.15585291    10.374034 
   27000   0.50111147  -0.69759012  0.087446511   0.14141355      9.95708 
   28000   0.50051884  -0.69126659  0.086781965    0.1461837    10.400622 
   29000   0.49772251   -0.7072974  0.086771471   0.12594852    10.070002 
   30000   0.49437047  -0.69053084  0.087055711     0.137972    10.155154 
   31000   0.50396596  -0.70538992  0.086780944   0.13722927     10.43026 
   32000   0.50766666  -0.70576562  0.086997166   0.14262004    10.024583 
   33000   0.50040503  -0.70017753  0.086999936   0.13732006    10.195276 
   34000   0.50352476  -0.70639349  0.086979292   0.13576235    10.095756 
   35000   0.50764158  -0.69809685    0.0873599   0.15061393    10.069014 
   36000   0.50122475  -0.70840491  0.087051048   0.13037319    10.268357 
   37000   0.49950615   -0.6939689    0.0869358   0.14211642    10.186013 
   38000   0.49586985  -0.69622349  0.086505808   0.13397819    9.9210154 
   39000    0.4906259  -0.69494564  0.087066071   0.12795154    9.9117585 
   40000   0.50059871  -0.71642878  0.086276948   0.12063629      10.0403 
   41000   0.49799282  -0.70359189  0.086998848   0.13028683    10.232921 
   42000   0.49896367  -0.68999355   0.08650451   0.14484687    10.209453 
   43000   0.50316527  -0.69711838  0.087225695   0.14474471    10.195817 
   44000    0.5126845   -0.6973901  0.086476264   0.15800032    10.197871 
   45000   0.50697341  -0.68934717  0.086791995    0.1577936    10.244596 
   46000   0.49861329  -0.70574819  0.086879013   0.12894126    10.176436 
   47000   0.50305631  -0.69683957  0.086801446   0.14443586    10.388067 
   48000   0.50296959     -0.69332  0.086528792   0.14755271    10.521348 
   49000   0.50349872  -0.69423136  0.086673796   0.14757993    10.306718 
   50000   0.50840696  -0.69432595  0.087182758    0.1553556    9.9760046 
   51000   0.50332604  -0.69456168  0.086813755   0.14713059    10.236959 
   52000   0.49864824  -0.69792267  0.086618136   0.13655832    10.276549 
   53000    0.4953061  -0.70279767  0.086817213   0.12686992    9.9527187 
   54000   0.49739597  -0.70216579  0.086648874    0.1304678    10.376007 
   55000   0.49675195  -0.70607138  0.086683224   0.12563068    9.9261184 
   56000   0.50100127  -0.69197277  0.086674168   0.14609328     10.10911 
   57000   0.49798473  -0.71924569  0.086847132   0.11446917    10.442238 
   58000     0.494439  -0.69323495  0.086671308   0.13498627    10.005167 
   59000   0.49045576  -0.68874367  0.086619774   0.13345203    10.091661 
   60000   0.49968394   -0.7006797  0.086803172   0.13553963    10.065248 
   61000   0.49646639  -0.70182625  0.087023597   0.12978789    9.9143755 
   62000    0.5018406  -0.69314569  0.086766299   0.14627129    10.174829 
   63000   0.49986632  -0.68869614  0.086598973   0.14759254    10.214731 
   64000   0.49708699  -0.70286287  0.087029025   0.12968748     10.14794 
   65000    0.5035661  -0.69581124  0.086845691   0.14627301    10.178545 
   66000    0.5002884  -0.68715494  0.087016374   0.15018416    10.177565 
   67000   0.50203407  -0.69506525  0.086525549   0.14440116    10.278391 
   68000   0.49494367  -0.69429867  0.086725391   0.13473353    9.8991419 
   69000   0.49426933   -0.6922344  0.087055118   0.13611617    10.007017 
   70000   0.49231442  -0.69822116  0.087120274   0.12726262    10.115021 
   71000   0.50364546  -0.69003003  0.086804093   0.15213164    10.109675 
   72000   0.49058297  -0.70445667  0.086722289   0.11803234    10.483103 
   73000   0.50113214  -0.69990167  0.086490491   0.13817697    10.174509 
   74000   0.50862564  -0.68930866  0.087286755   0.16080485    10.177453 
   75000   0.50027022  -0.68836199  0.086855585   0.14878907    10.230158 
   76000   0.50816765  -0.70994247  0.086983245   0.13918064    10.125382 
   77000   0.49857247  -0.70667466    0.0864801   0.12755465    10.146488 
   78000   0.49514481  -0.70169064  0.086898806   0.12781664    10.106766 
   79000   0.49749111  -0.70420886  0.086876477   0.12879503    10.117477 
   80000   0.49715279  -0.69459018   0.08697188   0.13800171     10.24852 
   81000   0.50437018  -0.69689731  0.087064624   0.14661182     10.23849 
   82000   0.50388832  -0.69881008  0.086402707   0.14331443    10.220446 
   83000   0.50053604  -0.68520476  0.086499434   0.15198881    9.9972211 
   84000   0.49977798  -0.69089588  0.087261936   0.14592326    10.234983 
   85000   0.49879284  -0.68606668  0.086881263    0.1488943    10.154764 
   86000   0.49591942  -0.70255011  0.086541123   0.12776123    10.056316 
   87000   0.49983746  -0.69821943   0.08687974   0.13830672    10.034604 
   88000    0.4997639  -0.71039631  0.087565846   0.12670563    10.160543 
   89000   0.51036638   -0.7031029  0.087152243   0.14948682     10.04846 
   90000   0.50129083   -0.6916814  0.086723105   0.14686785    10.030243 
   91000   0.49807018  -0.69625471  0.087002753   0.13774392    10.407438 
   92000   0.50371123  -0.70107817  0.086958195   0.14133625    10.155241 
   93000    0.4979113  -0.69705179  0.086475315   0.13618112    10.069857 
   94000   0.50048213  -0.69852679  0.086939536   0.13902603     10.36483 
   95000   0.51258253  -0.70677139  0.086767932   0.14875776    10.217755 
   96000    0.4952903  -0.68975719  0.087258226   0.14032771    9.9736281 
   97000   0.49771742  -0.70214451  0.086883919   0.13120623    10.258702 
   98000   0.50038849  -0.69554811  0.086730412   0.14165514    10.139144 
   99000   0.50327425  -0.70881941  0.087170819   0.13315226    10.122082 
  100000   0.50296961  -0.70879848  0.087023068   0.13256854    10.062785 
  101000   0.50324555  -0.70108185  0.086490786   0.14016673    10.219241 
  102000    0.4955566  -0.69513658  0.086932331   0.13502182    10.073837 
  103000   0.49038005  -0.70066057  0.086989991    0.1217918    10.218219 
  104000   0.50228584  -0.71415793  0.086770991   0.12593151    10.057534 
  105000   0.49775937  -0.69101716  0.086499981   0.14201256     9.939031 
  106000   0.49918293   -0.6918569  0.087359931    0.1441678    10.202353 
  107000   0.49842093     -0.70083  0.086536102   0.13322804    10.084727 
  108000   0.50365509   -0.7065617  0.087268714   0.13607904    10.234953 
  109000   0.49316727   -0.7018136  0.086702706   0.12453171    10.092418 
  110000   0.49768918  -0.69588307  0.087061279   0.13760268    10.082699 
  111000   0.49925704  -0.69927382  0.086813532   0.13631563    10.116896 
  112000   0.49996118  -0.71340394   0.08696246    0.1233905    10.221955 
  113000   0.49524083  -0.69459456  0.087010046   0.13516796    10.331359 
  114000   0.50290115  -0.70572198   0.08647037   0.13498967     10.19198 
  115000   0.50135074   -0.6974716  0.086794534   0.14123893    10.011898 
  116000   0.50375763  -0.70145635  0.086923308   0.14099277    10.241898 
  117000   0.49891423  -0.69795915  0.086354495   0.13665713    10.149606 
  118000    0.5048154  -0.69777151  0.086989107   0.14632983    10.192465 
  119000   0.49389399  -0.69591973  0.086554431   0.13136722    9.9675342 
  120000   0.50905014  -0.68808962  0.086488751   0.16186254    10.248076 
  121000   0.49987247  -0.69607682  0.087107325   0.14072943     10.04103 
  122000   0.50791492  -0.69652656  0.086752411   0.15198668    10.231218 
  123000   0.49729695  -0.70594976  0.087307341    0.1271938    10.253398 
  124000   0.49878023  -0.69768011  0.086741613    0.1371223    10.368906 
  125000   0.49944893  -0.69664547  0.087452898   0.13987113    10.180395 
  126000   0.49496474  -0.69327332   0.08665964   0.13572472    10.183908 
  127000   0.50043217   -0.6816975  0.086448679   0.15528952    9.9659255 
  128000   0.50372994  -0.69431329  0.086610354   0.14778134    10.126658 
  129000   0.49608413  -0.70152887   0.08690961   0.12939798    10.100716 
  130000   0.50483246  -0.70953271  0.086832779   0.13443788    10.245799 
  131000   0.50221171  -0.68488122  0.087155083   0.15548114     10.26028 
  132000   0.50165137  -0.69133123  0.086890437   0.14792608    10.187508 
  133000   0.49490433    -0.703622  0.086970624   0.12559642    9.9867914 
  134000   0.49565552  -0.69900876  0.086528008   0.13089366    10.090138 
  135000   0.50431133  -0.70703771  0.086367105   0.13568564    10.334225 
  136000   0.50593999  -0.69459943  0.086981243   0.15118068    10.133058 
  137000   0.49366764  -0.70595775  0.086566847   0.12100213     10.15484 
  138000   0.49273023  -0.70696058  0.086730592   0.11875714    10.063865 
  139000   0.50365698  -0.70791941  0.086802628   0.13425808    10.142978 
  140000   0.50909178  -0.69956399  0.087301662   0.15126354    10.299923 
  141000   0.50214732  -0.69474828  0.086989806   0.14535224    10.159386 
  142000   0.50183989   -0.7054562  0.086809214   0.13400263    10.147362 
  143000   0.49377231  -0.71064375  0.087301009   0.11720729    10.038977 
  144000   0.49913238  -0.69704178  0.087289878   0.13883705    10.185788 
  145000   0.50045576  -0.70047029  0.086322822   0.13642626    10.350261 
  146000   0.50141074  -0.69280245    0.0865986   0.14580214    10.035659 
  147000   0.49968452   -0.7012992  0.086504234   0.13462207    10.074675 
  148000   0.50592553  -0.70677834  0.087244419   0.13924326      10.3886 
  149000   0.49519912  -0.69202053  0.086930037   0.13759942    9.9383908 
  150000   0.50688854  -0.70147196  0.086615987   0.14536551    10.026134 
  151000   0.50346273  -0.71522348  0.086964065   0.12682411     10.00616 
  152000   0.49241694  -0.69806992  0.086597891   0.12704523    10.050964 
  153000   0.49476474  -0.68588319  0.086738714   0.14289398    9.8860678 
  154000   0.50969819  -0.68824034  0.086802598   0.16299761    10.497722 
  155000   0.49820659  -0.70726664   0.08639551   0.12632934    10.355887 
  156000   0.50246713  -0.69812195  0.086695558   0.14216395    10.281526 
  157000   0.50387545  -0.68826803  0.087123117   0.15455761    10.337745 
  158000   0.49758429  -0.69129063  0.086553884   0.14153041    9.8790065 
  159000   0.49408575  -0.70655014  0.087469103   0.12193908    9.9364091 
  160000   0.49433495  -0.71020349  0.087286112   0.11847648    10.363124 
  161000   0.49498463  -0.69004848  0.086690895   0.13901065    10.126224 
  162000   0.49670941  -0.69320056  0.086905223   0.13865969    10.065157 
  163000   0.50870089  -0.70957212  0.086696992   0.14006449    10.146422 
  164000   0.49030448  -0.70751795  0.086542271   0.11437337    10.385146 
  165000    0.5050593  -0.70701561  0.086559386    0.1370218     10.22796 
  166000   0.50190322  -0.70292349  0.087186002   0.13700712    10.199658 
  167000   0.49808446  -0.69184134   0.08681161   0.14198757     10.19261 
  168000   0.49556262  -0.71110909  0.086633923   0.11875992    10.124732 
  169000   0.50026434  -0.68904067  0.086903876   0.14814984     10.03862 
  170000   0.50405179  -0.69373948  0.086635166   0.14886267    10.073545 
  171000   0.51083617  -0.70267004  0.086502274    0.1499743    10.519787 
  172000   0.50070008  -0.71236972  0.087034878   0.12560532     10.38393 
  173000   0.50059344  -0.69507882  0.086930242   0.14263164    10.056371 
  174000   0.50555808  -0.70704397  0.086900521   0.13808264    10.345385 
  175000   0.49709463  -0.69507384  0.086631809   0.13709075    10.293221 
  176000   0.49257909  -0.69807996  0.087203209    0.1278837    10.172659 
  177000   0.50094298  -0.69809731  0.086818527   0.14002566    10.051949 
  178000   0.50957362  -0.69862961  0.086863073   0.15248198    10.220226 
  179000   0.50568563  -0.69948304    0.0865129   0.14544724    10.198794 
  180000    0.5058381  -0.69606631  0.086920507   0.14950025    10.006598 
  181000   0.49749673  -0.69438075  0.087150399   0.13890548    9.9577908 
  182000   0.49605241  -0.70619708  0.086814642   0.12458722    10.189752 
  183000    0.5013867  -0.69727729  0.086907171   0.14159982    10.163723 
  184000   0.50178663  -0.70031129  0.087055853    0.1393143    10.255873 
  185000   0.49462368  -0.70418487  0.086597047   0.12423906    10.156204 
  186000    0.5082204  -0.69803806   0.08708565   0.15126657    10.076623 
  187000   0.50277106  -0.69797729  0.086917413   0.14298629    10.006108 
  188000   0.49894769  -0.69232451  0.086657249   0.14264469    10.374877 
  189000   0.49616738   -0.6952032  0.086940759   0.13587966    10.267093 
  190000   0.50268646  -0.69683363  0.086858882   0.14394454    10.261925 
  191000   0.49708028  -0.68892314  0.086649338   0.14323745    10.110486 
  192000   0.48927439  -0.69423375  0.087247442   0.12681782    10.084092 
  193000   0.50536576   -0.6870824  0.087140885   0.15799614    10.227729 
  194000   0.50738687  -0.70909547  0.086560712   0.13843411     10.29334 
  195000   0.50104801  -0.70018689  0.087188993   0.13846407    10.114143 
  196000   0.50645262  -0.70776829  0.087077797   0.13887721    10.102028 
  197000   0.50570405  -0.68843473  0.087192857   0.15720314    10.083854 
  198000   0.50901215  -0.70872253  0.086491095     0.141175     10.28237 
  199000   0.49862962  -0.70645521  0.086765182    0.1281449    10.145078 
  200000    0.5113461  -0.70307807   0.08682495   0.15065373    10.102256 
Loop time of 934.857 on 1 procs for 200000 steps with 6830 atoms

Performance: 92420.599 tau/day, 213.937 timesteps/s
95.6% CPU use with 1 MPI tasks x no OpenMP threads

MPI task timing breakdown:
Section |  min time  |  avg time  |  max time  |%varavg| %total
---------------------------------------------------------------
Pair    | 168.83     | 168.83     | 168.83     |   0.0 | 18.06
Bond    | 0.5595     | 0.5595     | 0.5595     |   0.0 |  0.06
Neigh   | 596.86     | 596.86     | 596.86     |   0.0 | 63.85
Comm    | 36.383     | 36.383     | 36.383     |   0.0 |  3.89
Output  | 0.030117   | 0.030117   | 0.030117   |   0.0 |  0.00
Modify  | 124.75     | 124.75     | 124.75     |   0.0 | 13.34
Other   |            | 7.434      |            |       |  0.80

Nlocal:    6830 ave 6830 max 6830 min
Histogram: 1 0 0 0 0 0 0 0 0 0
Nghost:    10926 ave 10926 max 10926 min
Histogram: 1 0 0 0 0 0 0 0 0 0
Neighs:    43457 ave 43457 max 43457 min
Histogram: 1 0 0 0 0 0 0 0 0 0

Total # of neighbors = 43457
Ave neighs/atom = 6.36266
Ave special neighs/atom = 0.00849195
Neighbor list builds = 19631
Dangerous builds = 15950
reset_timestep  0

write_data      eq.data

### after equilibrating, perform measurements and output to files
### enter suitable Lammps commands

compute         rg polymer gyration
fix             rg polymer ave/time 1000 1 1000 c_rg file rg.txt

dump            3 polymer custom 1000 unwrapped.txt id mol type xu yu zu
dump_modify     3 sort id

dump            3w polymer custom 1000 wrapped.txt id mol type x y z
dump_modify     3w sort id

run             200000 ### enter measurement time
Per MPI rank memory allocation (min/avg/max) = 11.59 | 11.59 | 11.59 Mbytes
Step Temp E_pair E_mol TotEng Press 
       0    0.5113461  -0.70307807   0.08682495   0.15065373    10.102256 
    1000   0.50059598  -0.68623058  0.086900016   0.15145347     9.969247 
    2000   0.49951014  -0.69823824  0.086994245   0.13791151    10.070995 
    3000   0.49885426  -0.70585551  0.087026773   0.12934309    10.191185 
    4000   0.50210972    -0.697249  0.086957761   0.14276307    10.096347 
    5000   0.50420903  -0.69971587  0.087013495   0.14350044    10.023871 
    6000   0.49662174  -0.69919178  0.087107998   0.13273976    10.060887 
    7000    0.5009698  -0.70125914  0.086878287   0.13696382    10.236593 
    8000   0.50471807  -0.70549916  0.087400279   0.13886738      10.1817 
    9000    0.5054731  -0.71023454  0.087048394   0.13491249    10.257966 
   10000   0.50606094   -0.6986543  0.086659113   0.14698508    10.084228 
   11000   0.49781176  -0.70085069  0.086939964   0.13269758    10.036943 
   12000   0.50042538  -0.68909376  0.086791602     0.148226    10.180345 
   13000   0.49885663  -0.70070028  0.087128129   0.13460323    10.002667 
   14000   0.50341695  -0.69506855  0.086681281   0.14662759     9.968807 
   15000   0.49384491  -0.70445668  0.086684401   0.12288663    10.204887 
   16000   0.50064994  -0.69252288  0.086481864   0.14482394    10.034841 
   17000   0.50250347  -0.69307241  0.087246248   0.14781868    10.048183 
   18000   0.50389472  -0.70607995  0.087301854   0.13695331    9.8032533 
   19000   0.49336306   -0.6981248  0.087021583   0.12883302    10.308219 
   20000   0.49175908  -0.69482085  0.087409464   0.13011923    10.065354 
   21000   0.49870794  -0.71411426  0.087096616   0.12093475    10.168977 
   22000    0.4965608  -0.68685007  0.086984807   0.14486689    10.066256 
   23000      0.50075  -0.70589221  0.087245796   0.13236861    10.348122 
   24000    0.4976039  -0.70745428  0.086520441   0.12536272    10.176431 
   25000   0.50146936  -0.71126253  0.086856857   0.12768824    10.157847 
   26000    0.5002956  -0.69149922  0.087794454   0.14662876    10.351935 
   27000   0.50753703  -0.70704983   0.08641978   0.14056403    10.003469 
   28000   0.50475531  -0.70032716  0.087519032   0.14421399    10.341722 
   29000     0.499082  -0.68794881  0.086413944   0.14697853    10.166682 
   30000   0.49438101    -0.695222  0.086824377   0.13306532    10.199036 
   31000   0.50715005  -0.69550183   0.08707338   0.15218525    10.302217 
   32000   0.50206597  -0.69737474  0.086932105   0.14254606    10.026226 
   33000   0.50099017    -0.696624  0.086924689   0.14167592    10.271385 
   34000   0.49794286  -0.68386562  0.086643848   0.14958317     10.19046 
   35000   0.48262088  -0.70256477  0.087627899   0.10888846    10.291039 
   36000   0.50505484  -0.71090681  0.086362879    0.1329274      10.1144 
   37000   0.49856052  -0.69910881  0.086426744   0.13504923    10.022059 
   38000   0.50499833  -0.70128167  0.086659328   0.14276424    10.243481 
   39000   0.50223947  -0.70504025  0.086882095   0.13509074    10.231134 
   40000   0.49580981  -0.68292808  0.087218129   0.14789588    10.167254 
   41000   0.50344825  -0.69882704   0.08717057   0.14340534    10.030325 
   42000   0.49657257  -0.70070647  0.086520389   0.13056372    10.242299 
   43000   0.49050772  -0.70179942  0.086862686   0.12071712     10.07062 
   44000   0.49338178  -0.69546087  0.087109335   0.13161277    10.200443 
   45000   0.50711606  -0.71104499  0.086501114   0.13601883    10.138291 
   46000    0.4929252  -0.70216247  0.087200417   0.12431748    10.267423 
   47000   0.50217512  -0.70267419  0.086894151   0.13737235    10.213736 
   48000   0.50970374  -0.70313244  0.086766025   0.14807725    10.317127 
   49000   0.49501493   -0.7018279  0.086310431   0.12689621    10.301453 
   50000   0.49220674  -0.70232195  0.086529637   0.12240971    9.9923964 
   51000   0.50094093  -0.68852159  0.086543899   0.14932369    9.9832475 
   52000   0.49419031  -0.69048874  0.086597684   0.13728588    10.080951 
   53000   0.50052027  -0.70437602  0.086808915   0.13310337    10.155773 
   54000   0.50393542  -0.69822005  0.086930888    0.1445033    10.230451 
   55000   0.50136518  -0.70192247  0.087275634   0.13729082    10.170932 
   56000   0.49486421  -0.70349831  0.087244154   0.12593348    10.057242 
   57000    0.4997428  -0.70738181  0.086613415   0.12873604    10.049928 
   58000   0.50192224  -0.70370801  0.086909256   0.13597438    10.324028 
   59000    0.5046325  -0.69519903  0.087092671   0.14873157     10.17619 
   60000   0.49833795  -0.70161242  0.087165227   0.13295029    10.043095 
   61000   0.49582184   -0.6893972  0.086904511   0.14113119    10.196753 
   62000   0.49654182  -0.70010944  0.086628064   0.13122231    10.343544 
   63000   0.49680251  -0.69736887   0.08632003   0.13404583    10.211385 
   64000   0.50222346  -0.68879815  0.086756172   0.15118292    9.9843629 
   65000   0.49276638  -0.70436063  0.086441996   0.12112272     10.19695 
   66000   0.50310562  -0.69342091  0.086721538   0.14784856    9.9604955 
   67000   0.48756409  -0.70166737  0.086798507    0.1163702     10.08318 
   68000   0.50320117  -0.70989748   0.08667463   0.13146839    10.400147 
   69000    0.5022517  -0.70345442  0.086390664   0.13620349    9.9230975 
   70000   0.50334148  -0.69621405  0.086431219   0.14511883    10.301894 
   71000   0.50250868  -0.68310251  0.086731597   0.15728175    10.191481 
   72000   0.49249459  -0.70657498  0.086740803   0.11879954    10.223147 
   73000   0.50770328  -0.69727415  0.087513159   0.15168242    10.145473 
   74000   0.49492146  -0.70239732  0.086763062   0.12663924    10.116017 
   75000   0.50141499  -0.69361686  0.086645966   0.14504147    10.247561 
   76000    0.5047201   -0.6970738  0.086712183   0.14660768    9.8018969 
   77000   0.49634716  -0.70096552  0.087299422   0.13074562    10.016481 
   78000   0.50198218  -0.68579401  0.086959683    0.1540287    10.097688 
   79000   0.49621482  -0.69600898  0.086953861   0.13515814    10.057988 
   80000   0.50574131  -0.69936783  0.086694715   0.14582778    10.173898 
   81000   0.49854521  -0.70486162  0.086449192    0.1292959    10.131596 
   82000   0.50977121   -0.7047457  0.086697886   0.14649704    9.9922875 
   83000   0.50007644  -0.69712949  0.086754649   0.13962999     10.08291 
   84000   0.48943065  -0.70889912  0.086552488   0.11169186     9.861619 
   85000   0.50425037   -0.6896686  0.087101022   0.15369724    10.122563 
   86000   0.49821033  -0.70669313  0.086922995   0.12743594    10.262954 
   87000   0.50191648  -0.69550143  0.086896535   0.14415959    10.277187 
   88000   0.49970186  -0.70707254   0.08641515   0.12878566    10.068949 
   89000     0.491581  -0.69204755  0.086791932   0.13200792    10.082059 
   90000   0.49400241  -0.69190825  0.086740079   0.13572695    10.026991 
   91000   0.50666637  -0.69700247  0.087167407   0.15005322    10.243881 
   92000   0.49425595  -0.69266996  0.086949113   0.13555453    10.189851 
   93000   0.50735033  -0.70881108  0.086688688   0.13879168    10.254078 
   94000   0.50143037  -0.71280905   0.08693096   0.12615733     10.13936 
   95000   0.49855746  -0.69837062  0.086943935   0.13630002      9.88902 
   96000   0.50269147  -0.69622419  0.086760988    0.1444636    10.114839 
   97000   0.50011986  -0.69752258  0.086579845   0.13912722    10.272233 
   98000   0.49659896  -0.70484351   0.08718114   0.12712701    10.060274 
   99000   0.49534513  -0.69886396  0.086995031   0.13103998    10.002267 
  100000   0.50227111  -0.68953193  0.086762328   0.15052675    10.240295 
  101000   0.50116507  -0.67914481  0.086834162   0.15932689    10.170498 
  102000   0.49876834  -0.69537631  0.087681773   0.14034844    10.430204 
  103000   0.50541868  -0.69123133  0.086831885   0.15361757    10.211024 
  104000   0.49542529  -0.69200796  0.086529626   0.13755079    10.150185 
  105000   0.49023462  -0.68582857  0.086678315   0.13609402     10.03867 
  106000   0.50235473  -0.68757872  0.086395843   0.15223888    10.389681 
  107000    0.5032612  -0.70385649  0.086922366   0.13784715    10.104416 
  108000   0.50682145  -0.70088425  0.086777924   0.14601454    10.307775 
  109000   0.50266105   -0.6861335  0.086810337   0.15455802    10.236862 
  110000   0.50855855  -0.70554706  0.087116544   0.14429563    10.301922 
  111000    0.5068283  -0.70743949  0.087065119   0.13975676    10.203939 
  112000    0.5064867   -0.7025161  0.086838685    0.1439414    10.353765 
  113000   0.49599861  -0.68806225  0.086696758   0.14252349    10.269396 
  114000   0.49378928  -0.70810963  0.086853211   0.11931906    10.062444 
  115000   0.49448567    -0.698168  0.086663785    0.1301157    10.143856 
  116000   0.48718576  -0.69350686   0.08719768   0.12436246    10.308888 
  117000   0.49115553   -0.7137375  0.086736272    0.1096242    10.159881 
  118000   0.50541744  -0.69871724  0.086878023   0.14617594    10.139365 
  119000   0.50371967   -0.6868107    0.0867789   0.15543708    10.275804 
  120000   0.49917137  -0.70529248  0.086732877   0.13008783    10.273439 
  121000    0.5021885  -0.71574027  0.086592057   0.12402425     10.11069 
  122000    0.5062472  -0.70001377  0.086996801   0.14624266    10.303385 
  123000   0.50055588  -0.71653663  0.086723567   0.12091083     10.39398 
  124000   0.50269755  -0.70634376  0.086712957   0.13430512    10.122571 
  125000   0.50088771  -0.67552774  0.086543815   0.16223764    10.286903 
  126000   0.50316168  -0.69278023  0.086962897   0.14881469    10.035075 
  127000   0.49998996  -0.71100929  0.086777001   0.12564285    10.243817 
  128000   0.49705653  -0.69698728  0.086909606   0.13539796     10.17851 
  129000   0.50110095  -0.69619391  0.086671995   0.14201945    10.165463 
  130000   0.50089466  -0.71043676  0.086989422   0.12778465    10.284282 
  131000   0.50228601  -0.71418607  0.086654596   0.12578723    10.168239 
  132000   0.51535892  -0.69259241  0.086742113   0.16707491    10.129538 
  133000   0.49201139  -0.69846923  0.086689932   0.12612972    9.9110425 
  134000   0.49529747  -0.69724705  0.086728237   0.13231861     10.03552 
  135000   0.50351543  -0.68079119   0.08663507   0.16100644     10.00257 
  136000   0.51027392  -0.71056335  0.086710419   0.14144589    10.479176 
  137000   0.49744067  -0.70265443  0.086945148   0.13034247    10.193334 
  138000   0.50222999  -0.70283308  0.087009477   0.13741109    10.283896 
  139000   0.48864756   -0.6875691  0.087286919   0.13258183    10.040086 
  140000   0.49237337  -0.70717125  0.086998728    0.1182794    9.8018967 
  141000   0.50210126  -0.71207143  0.086761311    0.1277315    10.154995 
  142000   0.50147908  -0.69155508  0.086780453   0.14733386    9.8933999 
  143000    0.5035772  -0.68652783  0.086734277   0.15546166    10.368172 
  144000   0.49247031  -0.70713591  0.086931763   0.11839317    9.9576301 
  145000   0.51082441   -0.6965233  0.087226257   0.15682739    10.227163 
  146000   0.50223882  -0.68788255  0.086719516   0.15208489     10.09547 
  147000   0.50035579  -0.69623309  0.086487503   0.14067822    10.343093 
  148000   0.50597483  -0.69767205  0.086654316   0.14783338    10.094889 
  149000   0.49671607  -0.70773529   0.08696279   0.12419252    10.138288 
  150000   0.50558692   -0.7064021  0.086680995   0.13854824    10.271875 
  151000   0.50031678  -0.70274113  0.087061356   0.13468552    10.199124 
  152000   0.50453971  -0.69665912  0.086922908   0.14696255    10.081737 
  153000   0.49263218  -0.70674054  0.086859976   0.11895951    9.9666781 
  154000   0.50375355  -0.70275927  0.086897947   0.13965836    10.167365 
  155000    0.5107046  -0.69375598  0.086835679   0.15902444    10.270888 
  156000   0.49354589   -0.7012323  0.086720193   0.12569834    9.9744034 
  157000   0.48822268  -0.69898393  0.087172531   0.12041541    9.9109073 
  158000   0.50366669  -0.70689143   0.08684889   0.13534687    10.278383 
  159000   0.49838774  -0.69624537  0.086992912    0.1382197    10.120464 
  160000   0.49827407  -0.70529918  0.087108533   0.12911103    10.185225 
  161000   0.49190776  -0.70073761   0.08680518   0.12382118     10.04094 
  162000   0.49763065  -0.70256912  0.086652296   0.13041986    9.9774266 
  163000   0.50649628  -0.69521673  0.087376584   0.15179304    10.394805 
  164000   0.49067738  -0.71124149  0.086680011   0.11134682    10.327555 
  165000   0.49477287   -0.7013955  0.087129756   0.12778491    10.090201 
  166000   0.50699893  -0.68409814  0.086737107   0.16302601    10.156661 
  167000   0.51109474  -0.68443426  0.086943368   0.16903897     10.24272 
  168000   0.49793268  -0.69229934  0.086702946   0.14119328    9.9777519 
  169000   0.50095275  -0.69362362    0.0867161   0.14441159    10.251229 
  170000   0.49990401  -0.71206471  0.086673504   0.12435502    10.099206 
  171000   0.49492924  -0.69750103  0.087127767    0.1319119    10.412417 
  172000      0.50103  -0.70070606  0.086974984   0.13770388    10.250385 
  173000   0.49997453  -0.70841954  0.086664571   0.12809703    10.264443 
  174000   0.50472601  -0.70520508  0.086823224   0.13859632    10.156704 
  175000   0.50069361  -0.70171631  0.087063995   0.13627813     10.33796 
  176000   0.50501814  -0.69405268  0.086622862   0.14998648    10.105905 
  177000   0.50856482  -0.70287255  0.086588254   0.14645124    10.165245 
  178000   0.49558987  -0.69945863  0.086848735   0.13066606    10.003995 
  179000   0.50261681  -0.69167955  0.087298796   0.14943408    10.532012 
  180000   0.50116171  -0.68750964  0.086943134     0.151066    10.069207 
  181000   0.49887282  -0.69649277  0.086364243   0.13807115    10.147324 
  182000   0.50347762   -0.7115408  0.086358596   0.12992365    10.137608 
  183000   0.49602853   -0.6910683    0.0870267   0.13989226    10.013738 
  184000   0.50635268  -0.70946044  0.086532598   0.13648998    10.088751 
  185000   0.50020064  -0.69816577  0.086849166   0.13887451    10.014446 
  186000    0.5026963  -0.68799544  0.087236231   0.15317485    10.339463 
  187000   0.49666412   -0.6993606  0.086820288   0.13234679     10.32691 
  188000   0.50385114  -0.68957967  0.087070902   0.15315729    10.026235 
  189000   0.50240534  -0.69644473   0.08669801   0.14375095    10.156703 
  190000   0.50996019   -0.6943739  0.086968161   0.15742256    10.368318 
  191000   0.50284785  -0.70135781  0.087061192   0.13986473    10.189547 
  192000   0.50788604  -0.69929044  0.086889572   0.14931665    10.052395 
  193000   0.50012564  -0.70787248  0.087077077   0.12928322    10.075696 
  194000   0.50042822  -0.70327495  0.086991178   0.13424865    10.405814 
  195000     0.501409  -0.69320519  0.086841811   0.14564001    10.086001 
  196000   0.50264508  -0.70774928  0.086742804   0.13285076    10.054704 
  197000   0.49933713  -0.70041446  0.086693663   0.13517524    10.312556 
  198000   0.49964447  -0.69776365   0.08651355   0.13810687     10.33385 
  199000    0.4989033  -0.69256817  0.087427709   0.14310492     10.41862 
  200000   0.49846166  -0.68654234  0.086639754   0.14768043    10.385615 
Loop time of 914.236 on 1 procs for 200000 steps with 6830 atoms

Performance: 94505.088 tau/day, 218.762 timesteps/s
96.4% CPU use with 1 MPI tasks x no OpenMP threads

MPI task timing breakdown:
Section |  min time  |  avg time  |  max time  |%varavg| %total
---------------------------------------------------------------
Pair    | 163.48     | 163.48     | 163.48     |   0.0 | 17.88
Bond    | 0.5305     | 0.5305     | 0.5305     |   0.0 |  0.06
Neigh   | 584.02     | 584.02     | 584.02     |   0.0 | 63.88
Comm    | 35.186     | 35.186     | 35.186     |   0.0 |  3.85
Output  | 0.084674   | 0.084674   | 0.084674   |   0.0 |  0.01
Modify  | 123.61     | 123.61     | 123.61     |   0.0 | 13.52
Other   |            | 7.323      |            |       |  0.80

Nlocal:    6830 ave 6830 max 6830 min
Histogram: 1 0 0 0 0 0 0 0 0 0
Nghost:    10892 ave 10892 max 10892 min
Histogram: 1 0 0 0 0 0 0 0 0 0
Neighs:    43273 ave 43273 max 43273 min
Histogram: 1 0 0 0 0 0 0 0 0 0

Total # of neighbors = 43273
Ave neighs/atom = 6.33572
Ave special neighs/atom = 0.00849195
Neighbor list builds = 19633
Dangerous builds = 15980

write_data      final.data
Total wall time: 0:30:49
