LAMMPS (3 Mar 2020)
# Single Chain in Solvent/CoSolvent
units		lj
atom_style	bond
boundary        p p p
timestep	0.005

pair_style      lj/cut 2.5
bond_style	fene

read_data       chain.data
  orthogonal box = (-5.77581 -5.77581 -5.77581) to (5.77581 5.77581 5.77581)
  1 by 1 by 1 MPI processor grid
  reading atoms ...
  6830 atoms
  reading velocities ...
  6830 velocities
  scanning bonds ...
  1 = max bonds/atom
  reading bonds ...
  29 bonds
  2 = max # of 1-2 neighbors
  2 = max # of 1-3 neighbors
  4 = max # of 1-4 neighbors
  6 = max # of special neighbors
  special bonds CPU = 0.00160003 secs
  read_data CPU = 0.0402539 secs

pair_coeff      1 1  1.0  1.00  1.12246
pair_coeff      1 2  0.5  0.75  1.87500
pair_coeff      1 3  1.0  0.75  1.87500
pair_coeff      2 2  1.0  0.50  0.56123
pair_coeff      2 3  1.0  0.50  0.56123
pair_coeff      3 3  1.0  0.50  0.56123

bond_coeff	1 30.0 1.5 1.0 1.0
special_bonds	fene
  2 = max # of 1-2 neighbors
  6 = max # of special neighbors
  special bonds CPU = 0.000939846 secs

set             atom 5471*6830 type 3
  1360 settings made for type

group polymer 	type 1
30 atoms in group polymer
group solvent 	type 2
5440 atoms in group solvent
group cosolvent type 3
1360 atoms in group cosolvent

velocity        all create 0.5 1138837 dist gaussian

### add suitable fix(es) for time integration and thermostatting
fix             1 all nve
fix             2 all langevin 0.5 0.5 1.0 41123

thermo          1000
run     	200000 ### enter equilibration time
Neighbor list info ...
  update every 1 steps, delay 10 steps, check yes
  max neighbors/atom: 2000, page size: 100000
  master list distance cutoff = 2.175
  ghost atom cutoff = 2.175
  binsize = 1.0875, bins = 11 11 11
  1 neighbor lists, perpetual/occasional/extra = 1 0 0
  (1) pair lj/cut, perpetual
      attributes: half, newton on
      pair build: half/bin/newton
      stencil: half/bin/3d/newton
      bin: standard
Per MPI rank memory allocation (min/avg/max) = 8.586 | 8.586 | 8.586 Mbytes
Step Temp E_pair E_mol TotEng Press 
       0          0.5  -0.72472804  0.086324675   0.11148682    10.089432 
    1000   0.49978712  -0.70706892  0.086472107    0.1289741    10.019911 
    2000   0.50123312  -0.71754766  0.086439114   0.12063105    10.096849 
    3000   0.51079693  -0.71578063  0.086892042   0.13719463    10.110041 
    4000   0.49573445   -0.7238655  0.086729785   0.10635708    10.138042 
    5000   0.50458891  -0.71359726  0.087033998   0.13020928     10.14891 
    6000   0.50384257  -0.70300776  0.086551263    0.1391967    9.9127261 
    7000   0.49349502  -0.71709285  0.086699539   0.10974084    10.137181 
    8000   0.49588937   -0.7196886  0.086630185   0.11066674    10.274883 
    9000   0.50451364  -0.73452446   0.08715145   0.10928665    10.068426 
   10000   0.49622481  -0.72116564  0.086617219   0.10967981    9.9086658 
   11000   0.50135783  -0.71891985   0.08685224   0.11985902    10.106539 
   12000   0.50262407  -0.72318552  0.086701022   0.11734122    9.9897697 
   13000   0.50632566  -0.71806549  0.086347353   0.12765917    10.112536 
   14000   0.50767221  -0.73417938  0.087388341   0.11460578    10.118122 
   15000     0.498315  -0.72799085  0.086933275   0.10630549    10.138874 
   16000    0.4948696    -0.731333  0.087230742  0.098093449    10.130567 
   17000    0.4979837  -0.73330178  0.086963063   0.10052747    10.181293 
   18000   0.50073061  -0.74216904  0.086466024  0.095282927    10.312882 
   19000   0.49705567  -0.72842347  0.086677605   0.10372848    10.043628 
   20000   0.49676137  -0.72714082  0.086780856   0.10467299    10.167104 
   21000   0.50829608    -0.729709  0.086506781   0.11913027    10.058133 
   22000   0.49713341   -0.7209159  0.086446119   0.11112114    9.8842541 
   23000   0.49911629   -0.7392398  0.086506225  0.095831249    10.316022 
   24000   0.49693567  -0.73185982   0.08629748  0.099732037    10.060977 
   25000   0.50499948  -0.72547328  0.086377083   0.11829211    10.353301 
   26000   0.49712328  -0.73010894  0.087092693    0.1025595    10.143621 
   27000   0.50158826  -0.72994102  0.087085949   0.10941716    9.9971021 
   28000   0.50570683  -0.71515373    0.0867337   0.13002916    10.042629 
   29000   0.50159016  -0.73431711  0.086846789   0.10480477    10.407305 
   30000   0.49826374  -0.72064579  0.086820086   0.11346047    9.8811588 
   31000   0.49618481  -0.72421561  0.086502549   0.10645519    9.8452973 
   32000   0.49603267  -0.71881563  0.086585257    0.1117097    10.153043 
   33000   0.50473342    -0.715727  0.086640767   0.12790305     10.25808 
   34000   0.50515497  -0.74263059  0.086622078     0.101613     10.33198 
   35000   0.50095121  -0.71088345  0.087032534   0.12746588    10.145876 
   36000   0.50237489  -0.71602001  0.088060859   0.12549286    9.8743601 
   37000    0.4989242  -0.71092381  0.086659718   0.12401264    10.202158 
   38000   0.50426879  -0.72835571  0.086720959   0.11465769    9.9877035 
   39000   0.49579635  -0.73104667  0.086720674  0.099259645    10.182907 
   40000   0.50757094  -0.72121076  0.087341237   0.12737542    10.124785 
   41000   0.49150192  -0.72817043  0.086270684  0.095245189    10.012708 
   42000   0.50678207  -0.72991148  0.087016588   0.11716692     10.07892 
   43000   0.49967807  -0.71983333  0.086619999   0.11619403    10.421755 
   44000   0.50855518  -0.71411068  0.086489967   0.13510036     10.07202 
   45000     0.503766  -0.72505299  0.087412065   0.11789743    10.151732 
   46000   0.50613895  -0.72967379  0.086676108   0.11609959    9.9276872 
   47000   0.49825514   -0.7376873  0.087534783  0.097120777    10.239055 
   48000   0.49324738  -0.71707731  0.086716133   0.10940157    9.8146538 
   49000   0.49828369  -0.72086789  0.086615588   0.11306381    10.168495 
   50000   0.49609939  -0.72198958  0.086586878   0.10863744    9.7948835 
   51000   0.49655326  -0.72112897  0.087906364   0.11149823    9.8824043 
   52000   0.50332999  -0.72467029  0.086855519   0.11706968    10.430138 
   53000   0.50094732  -0.74250376  0.086972422   0.09577963    10.276261 
   54000   0.50287057  -0.72186559  0.086923977   0.11925381    10.136002 
   55000   0.50894102  -0.72255129  0.087280802   0.12802927     10.16665 
   56000   0.50550836  -0.71662992   0.08646574   0.12798734    9.9794605 
   57000   0.50987553  -0.72073659  0.086769671    0.1307344    10.187905 
   58000   0.50608807  -0.72612082  0.086661191   0.11956132    10.193054 
   59000    0.5002955   -0.7120244  0.086741548   0.12505053    10.280089 
   60000   0.49638606  -0.71128185   0.08778233   0.12097056    10.070551 
   61000   0.50088952  -0.72078751  0.086854124   0.11729089    10.052181 
   62000   0.49461318  -0.71746121  0.086448995   0.11079893     9.986495 
   63000   0.50085993  -0.71707879  0.087311908   0.12141301    9.8500792 
   64000   0.49545434   -0.7160383  0.086596738   0.11363114    10.011718 
   65000   0.49506201  -0.71643896  0.086549174    0.1125945    10.197639 
   66000   0.50632588  -0.73764134  0.086991162   0.10872744    9.9764551 
   67000   0.49957897  -0.72216007   0.08695929   0.11405796    9.7461717 
   68000   0.49319547  -0.72851023  0.087304512  0.098479177    9.7262944 
   69000   0.49929268  -0.73070867  0.086974132   0.10509482    10.274517 
   70000   0.50298235  -0.72350517  0.086679854   0.11753775    10.164621 
   71000   0.49825525  -0.74044216  0.086867028  0.093698323    10.087809 
   72000   0.51285339  -0.72952427  0.086398784   0.12604196    10.183852 
   73000   0.49590214  -0.71857449  0.087101873   0.11227168    10.188468 
   74000   0.50532316  -0.71474352  0.087074341   0.13020459    10.181717 
   75000   0.49253372  -0.72582647  0.086659431  0.099525376    10.154646 
   76000   0.50916412  -0.73607268  0.087126524    0.1146882    10.137638 
   77000   0.50141385  -0.73027326  0.086537308    0.1082747    10.227439 
   78000   0.49259795  -0.72488794  0.086899631   0.10080042    9.9523216 
   79000   0.50444857  -0.72549918  0.086764077   0.11782697    10.192779 
   80000   0.49454961  -0.72783076  0.086489586   0.10037464    10.036149 
   81000   0.50182187  -0.72187787  0.086522847   0.11726756    10.041845 
   82000   0.49798457  -0.71979985  0.086497836   0.11356547     10.21564 
   83000   0.50341615   -0.7162386  0.086760591   0.12553566    10.125383 
   84000   0.50150041   -0.7191022  0.087026677   0.12006496    10.144713 
   85000   0.50187845   -0.7308266  0.086829401   0.10871026    10.081088 
   86000   0.49512239  -0.72988756   0.08681573  0.099503012    10.132863 
   87000   0.51054232  -0.73947782  0.086535736   0.11275928    10.126458 
   88000   0.50904598  -0.71792681  0.086500357   0.13203071    10.155528 
   89000   0.50098404  -0.72962483  0.086916054   0.10865726    10.385168 
   90000   0.49351103  -0.73957998  0.086443635  0.087021822    9.9005378 
   91000   0.49223268  -0.72563024  0.086821096  0.099431771    10.080198 
   92000   0.50758293  -0.72209884  0.087382586   0.12654668    10.304013 
   93000   0.49903723  -0.73319017  0.087456583   0.10271266    10.047229 
   94000   0.50336181  -0.74434872  0.086757756  0.097341206    10.153967 
   95000   0.50303237  -0.73600867  0.087378363   0.10580778    10.070567 
   96000   0.49333189    -0.718874  0.086772404   0.10778789    10.081271 
   97000    0.5000399  -0.71935768  0.087799745    0.1183921    9.8930633 
   98000   0.49454301  -0.71550184  0.086657267   0.11286133    10.070813 
   99000    0.5060841  -0.72540926  0.086571495   0.12017724    10.296309 
  100000   0.49862139  -0.72613126  0.086823325   0.10851464    10.174247 
  101000   0.49877892  -0.73766706  0.086684552   0.09707634    10.272969 
  102000    0.4989375  -0.73234407  0.087142888   0.10309549    9.8305425 
  103000   0.50969717  -0.72498948  0.086436556   0.12588089    10.205324 
  104000   0.49699899  -0.73204689   0.08683685   0.10017929    10.173514 
  105000   0.50350603  -0.72878324  0.086970684   0.11333591    10.214318 
  106000   0.49836427  -0.72473637  0.087051234   0.10975182    10.119036 
  107000   0.49375622  -0.72707683  0.087101325   0.10055039     10.21241 
  108000   0.50339804  -0.73136811  0.086869671   0.11048806    10.015374 
  109000   0.50129296  -0.71538184  0.086470039   0.12291754    9.9898026 
  110000    0.5090486  -0.72332299  0.086556629   0.12669474    10.101157 
  111000   0.50639195  -0.71952145  0.086876266   0.12683152    10.154308 
  112000   0.50268516   -0.7247335  0.086917435   0.11610128    9.9016985 
  113000   0.50040892  -0.71003469  0.086835792   0.12730458    10.105421 
  114000   0.50548937  -0.72412455  0.086903646   0.12090214    10.185718 
  115000   0.49393986  -0.71674495  0.087753237   0.11180959    10.112406 
  116000   0.49403907  -0.71520486  0.086739481   0.11248472    9.9411165 
  117000   0.50046095   -0.7281113  0.087075477    0.1095457    9.7396181 
  118000   0.50293606  -0.71481521  0.086651818   0.12613024    9.8609227 
  119000   0.49950866  -0.72071318  0.086800886   0.11524099    10.286721 
  120000   0.49190219  -0.72981704  0.086963186  0.094891397    9.8708594 
  121000   0.49686119  -0.71658755  0.086662252   0.11525736    9.9980732 
  122000   0.50317576  -0.71607558   0.08669204   0.12526959    10.032449 
  123000   0.49163936  -0.73023786  0.086437315  0.093550521    9.9243526 
  124000   0.49526564  -0.72384863  0.087156826   0.10609788    10.025917 
  125000   0.50004418  -0.73195669  0.087276414   0.10527617      10.1238 
  126000   0.49958503   -0.7247417  0.086828455   0.11135458    10.159994 
  127000   0.49265021  -0.71247835  0.087180086   0.11356886    10.073493 
  128000   0.50077154   -0.7097446  0.086670523   0.12797326    10.008131 
  129000   0.49735436  -0.71901106  0.086678858   0.11359011    10.068045 
  130000   0.49701041  -0.72649643  0.086545403   0.10545543    10.194722 
  131000   0.49807232   -0.7230371  0.086358314    0.1103203    10.130324 
  132000   0.50327229  -0.71748678  0.086378857   0.12368999    10.024964 
  133000   0.50375265  -0.73801159  0.086575118   0.10408188    10.230873 
  134000   0.50731192  -0.72909423   0.08727256   0.11903479    9.9235681 
  135000   0.50146249  -0.72744458  0.086816597   0.11145562    10.096641 
  136000   0.49981266  -0.72684281  0.086730238   0.10949665    10.142148 
  137000   0.49593702  -0.73053338  0.087423179   0.10068641    9.9247472 
  138000   0.50987884  -0.74046453  0.086652365   0.11089411    10.359899 
  139000   0.49446964    -0.728243   0.08634884  0.099701702    10.049322 
  140000   0.50410082   -0.7337264  0.087031362   0.10934548    10.266795 
  141000   0.49508589  -0.73132046  0.086758293  0.097957939    10.143467 
  142000   0.50975103   -0.7258207  0.086630258   0.12532415    10.110431 
  143000   0.49845225  -0.72296757  0.086870314   0.11147165    9.8139063 
  144000   0.49944866  -0.73311445  0.087026022   0.10297488    10.079381 
  145000    0.4960725  -0.73525353  0.087039329  0.095785594    10.056625 
  146000   0.50208871  -0.72799962  0.086624513   0.11164769    10.129925 
  147000   0.49522337  -0.72885384  0.086811888   0.10068435     10.12762 
  148000   0.48683693  -0.73543628  0.086905765  0.081617962    10.003507 
  149000   0.50738659  -0.73183069  0.087227673   0.11636544    10.222178 
  150000   0.50214567  -0.71602477  0.086772221   0.12385567    10.215326 
  151000   0.48683331   -0.7185398  0.086777409  0.098380659    10.158067 
  152000   0.49992858  -0.72097118  0.086951855   0.11576375    10.042329 
  153000   0.49487852  -0.72286507  0.087650907   0.10699493    10.119004 
  154000   0.50635441   -0.7214111  0.087121459   0.12513077    10.171641 
  155000   0.50213727  -0.73223521  0.086581147   0.10744157    10.402979 
  156000   0.50028621   -0.7272782  0.086627696   0.10966894    10.111626 
  157000   0.49679299  -0.72929937  0.086990062   0.10277107     10.00869 
  158000   0.49747988  -0.72801221  0.086920785   0.10501914    10.327598 
  159000   0.50621686  -0.70979232  0.087260171   0.13668197    9.8374755 
  160000   0.50093398  -0.71098132  0.086969865    0.1272795     10.21848 
  161000   0.49324639  -0.72149244  0.086542869   0.10481169    10.103926 
  162000   0.49324118  -0.71312626  0.086602215    0.1132294    10.116943 
  163000   0.50456063  -0.72954566  0.086750921   0.11393539    9.9667447 
  164000   0.49785013  -0.72160882  0.086820819   0.11187786    10.376558 
  165000   0.50366862  -0.73889373  0.086860522   0.10335911    10.032083 
  166000   0.49361156  -0.72364806  0.086400995   0.10306187    10.079442 
  167000   0.49989072  -0.72015105  0.086890083   0.11646533    10.099919 
  168000   0.49257253   -0.7154014  0.086996214   0.11034543    10.227856 
  169000   0.50249963  -0.73057988  0.086759672   0.10981889     10.10206 
  170000   0.50112536  -0.71369271  0.086763721   0.12464899    10.216832 
  171000   0.50435003  -0.72019472  0.086563882   0.12278344    10.249949 
  172000   0.49437839  -0.72100153  0.087100261   0.10755774    10.173661 
  173000   0.49645613  -0.71324097   0.08711747   0.11845166    10.333509 
  174000   0.49604518  -0.72657666  0.086969216   0.10435139    10.311865 
  175000   0.50058632  -0.73222878  0.086904302   0.10544506     10.19683 
  176000   0.50423643  -0.71829347  0.086807594   0.12475803    10.148139 
  177000    0.4934593   -0.7312018  0.086633825  0.095512603    10.185874 
  178000   0.48751644  -0.72875193  0.086573596  0.088989251    10.208862 
  179000   0.49628088  -0.72569565  0.086983159   0.10559984     10.25846 
  180000   0.50489344  -0.72395396  0.086620662   0.11989598    10.044226 
  181000   0.50267212  -0.72902511  0.087777591   0.11265027    9.9498501 
  182000   0.50280557  -0.73408911  0.086901548   0.10691037    10.051602 
  183000   0.50078523  -0.72512866  0.086996137   0.11293533    10.042258 
  184000   0.50515905  -0.71923947   0.08681338   0.12520154    10.041996 
  185000   0.50095117  -0.71212264  0.087063463   0.12625755    10.153567 
  186000   0.50342075  -0.72510637  0.086889178   0.11680338    10.073407 
  187000   0.49741322  -0.72427789   0.08676963   0.10850233    10.123537 
  188000   0.50123959  -0.73361018  0.086500462   0.10463958     10.22597 
  189000   0.50527018  -0.72553076  0.087204826   0.11946836    10.045809 
  190000   0.50353437    -0.731038  0.086524555   0.11067753    10.044713 
  191000   0.49739612  -0.73515528  0.086650623  0.097480289    9.8910021 
  192000   0.49757784  -0.72061477  0.086668559   0.11231128    10.115581 
  193000   0.49120811  -0.71221174  0.087051449     0.111544    10.226496 
  194000   0.49851326   -0.7162853  0.086883051   0.11825815    10.017313 
  195000   0.49919441  -0.71091806  0.086792754   0.12455669    10.083686 
  196000    0.4974871   -0.7379437  0.086977467  0.095155164    10.268629 
  197000   0.50498628  -0.71828639  0.086883896   0.12596601    10.468957 
  198000   0.49183487  -0.73180909   0.08669747  0.092532671     10.05238 
  199000   0.49874316  -0.72922306  0.087234387   0.10601653    10.101231 
  200000   0.49935128  -0.71461265  0.086831475   0.12113607     10.22666 
Loop time of 809.013 on 1 procs for 200000 steps with 6830 atoms

Performance: 106796.831 tau/day, 247.215 timesteps/s
96.4% CPU use with 1 MPI tasks x no OpenMP threads

MPI task timing breakdown:
Section |  min time  |  avg time  |  max time  |%varavg| %total
---------------------------------------------------------------
Pair    | 141.58     | 141.58     | 141.58     |   0.0 | 17.50
Bond    | 0.4398     | 0.4398     | 0.4398     |   0.0 |  0.05
Neigh   | 515.31     | 515.31     | 515.31     |   0.0 | 63.70
Comm    | 30.83      | 30.83      | 30.83      |   0.0 |  3.81
Output  | 0.042523   | 0.042523   | 0.042523   |   0.0 |  0.01
Modify  | 114.08     | 114.08     | 114.08     |   0.0 | 14.10
Other   |            | 6.737      |            |       |  0.83

Nlocal:    6830 ave 6830 max 6830 min
Histogram: 1 0 0 0 0 0 0 0 0 0
Nghost:    11095 ave 11095 max 11095 min
Histogram: 1 0 0 0 0 0 0 0 0 0
Neighs:    43235 ave 43235 max 43235 min
Histogram: 1 0 0 0 0 0 0 0 0 0

Total # of neighbors = 43235
Ave neighs/atom = 6.33016
Ave special neighs/atom = 0.00849195
Neighbor list builds = 19632
Dangerous builds = 15972
reset_timestep  0

write_data      eq.data

### after equilibrating, perform measurements and output to files
### enter suitable Lammps commands

compute         rg polymer gyration
fix             rg polymer ave/time 1000 1 1000 c_rg file rg.txt

dump            3 polymer custom 1000 unwrapped.txt id mol type xu yu zu
dump_modify     3 sort id

dump            3w polymer custom 1000 wrapped.txt id mol type x y z
dump_modify     3w sort id

run             200000 ### enter measurement time
Per MPI rank memory allocation (min/avg/max) = 11.59 | 11.59 | 11.59 Mbytes
Step Temp E_pair E_mol TotEng Press 
       0   0.49935128  -0.71461265  0.086831475   0.12113607     10.22666 
    1000   0.50706677  -0.73137879  0.086760585   0.11587058    10.131967 
    2000   0.49557317  -0.71820758  0.086860732   0.11190407    10.220619 
    3000   0.49789732  -0.73407526  0.086744133  0.099405501    10.194363 
    4000   0.48994647  -0.72722671   0.08641857  0.094003965    10.152847 
    5000   0.50011383  -0.72267957   0.08677406    0.1141554    10.064764 
    6000   0.49320813  -0.71599355  0.086996888   0.11070721    10.077908 
    7000   0.50262627  -0.71499224  0.086643976   0.12548076    10.148823 
    8000    0.5036175  -0.71794572  0.086802299   0.12417222    10.201523 
    9000   0.50900993   -0.7288024  0.086673415   0.12127412    10.315021 
   10000   0.49952038  -0.72714961  0.086597399   0.10861865    10.335891 
   11000   0.51066104  -0.72809944  0.087250984   0.12503095    10.039852 
   12000   0.49838925  -0.71675337  0.086173482   0.11689453    10.150494 
   13000   0.50430493  -0.71932827  0.086852228   0.12387059    10.117015 
   14000   0.50416055  -0.72124402  0.086843061   0.12172915    10.144421 
   15000   0.50564103  -0.73563465  0.087134572   0.10985042    9.9832517 
   16000   0.50225001  -0.73058446  0.086887323   0.10956757    10.097266 
   17000   0.49472653   -0.7304885  0.086893696  0.098386341    10.062239 
   18000   0.49942606  -0.71276645  0.086846907   0.12310987    9.9087269 
   19000   0.49945462  -0.71981619  0.086571869   0.11582792    10.070444 
   20000   0.50333276  -0.72929128   0.08692692   0.11252425    10.052191 
   21000   0.49352429  -0.72222761  0.086600204   0.10455064    10.544223 
   22000   0.50039224  -0.73525698  0.086800522   0.10202201    10.061593 
   23000   0.49752702  -0.72384794  0.086661809   0.10899514    10.236871 
   24000    0.4997831  -0.73702126  0.086565487  0.099109114    10.054845 
   25000   0.50087042    -0.726656  0.087462827   0.11200245    9.9125958 
   26000   0.49655934  -0.72138226  0.086744545   0.11009225    10.082749 
   27000   0.50692036  -0.72280357  0.086885692   0.12435133    10.156529 
   28000   0.50067829  -0.73299978  0.086626766   0.10453445    10.075373 
   29000    0.5064582  -0.73323492  0.086865524   0.11320667    10.086025 
   30000    0.5044322  -0.72284465  0.086598128   0.12029099      10.0727 
   31000   0.49435452  -0.73043553  0.086850586  0.097838258    10.153264 
   32000    0.5004674  -0.71631502  0.086904258   0.12118043    9.9309096 
   33000   0.50445107  -0.73016749   0.08683022   0.11322855    9.8996631 
   34000   0.49712582  -0.70435808    0.0867638   0.12798528    10.140722 
   35000   0.49888441  -0.71603773  0.086605413   0.11878474    10.246471 
   36000   0.50568155  -0.71726266  0.087130128   0.12827872    10.134116 
   37000   0.49609788  -0.72579786  0.086556834   0.10479685    9.8739446 
   38000   0.50373636  -0.73374778  0.086795167   0.10854129    10.044915 
   39000   0.49361071  -0.72128905  0.087201892    0.1062205    10.281022 
   40000    0.4866538  -0.72083833   0.08679997  0.095835455    10.244413 
   41000   0.49939583  -0.72150229    0.0865134   0.11399518    10.325751 
   42000   0.50135334  -0.72884599  0.087222536   0.11029645    10.224191 
   43000   0.50400808  -0.73127853  0.086860685   0.11148359    10.085409 
   44000   0.49967571   -0.7252029  0.086916683   0.11111761    9.9883217 
   45000   0.49183075  -0.72904705  0.086860087  0.095451142    9.9597226 
   46000   0.50552728   -0.7231471  0.086845948   0.12187874    10.341029 
   47000   0.49538114  -0.72699783  0.086768544   0.10273363    10.229125 
   48000   0.51063474  -0.72915336  0.086686722   0.12337332    10.417657 
   49000   0.50435569  -0.72639227    0.0867819    0.1168124    10.035581 
   50000   0.49661521  -0.73024967  0.086989916     0.101554    10.368036 
   51000    0.4950852  -0.72832067  0.086996389   0.10119479     9.956362 
   52000   0.50235778  -0.72472116  0.087934889   0.11664008    10.313512 
   53000   0.49686934  -0.73225098  0.086253667  0.099197577    10.132133 
   54000   0.49571059  -0.72941446  0.087031894   0.10107444    9.8643074 
   55000   0.51063736  -0.72106028  0.087156912   0.13194052    10.055488 
   56000   0.49530094  -0.71413458  0.086920134    0.1156282    10.079162 
   57000   0.49445892  -0.71864797  0.086607998    0.1095398    10.116107 
   58000   0.49230569  -0.71652857  0.086831966   0.10865381    10.111286 
   59000   0.50045489  -0.73188271  0.086597648   0.10528737    9.9728635 
   60000   0.50057655  -0.71934621   0.08718512    0.1185938    10.319178 
   61000   0.49975765   -0.7318871  0.086832501   0.10447211    10.082509 
   62000   0.50474615  -0.72938129  0.086767875   0.11439495     10.17498 
   63000   0.50814856  -0.72956278   0.08656852   0.11911699    10.082533 
   64000   0.49516451  -0.72721798  0.087056635   0.10247667    9.7413353 
   65000   0.49619146  -0.74339674  0.086779229  0.087560709    10.086869 
   66000   0.50144852  -0.71703209  0.087088906   0.12211947    10.223903 
   67000   0.49887293  -0.73917526  0.087029212  0.096053783    10.178379 
   68000   0.49544365  -0.73417041  0.086541619  0.095427877    9.8030785 
   69000    0.4868324  -0.71529546  0.087020944   0.10186717    9.9776147 
   70000   0.49198921  -0.72055882  0.086451797   0.10376875    9.7839995 
   71000   0.50023143   -0.7291428  0.087131125   0.10822561    9.9979951 
   72000   0.49383839  -0.72361372  0.086983904   0.10401932     10.27404 
   73000   0.50273204  -0.73667094  0.087152825   0.10446954    10.215697 
   74000   0.50215932  -0.72503855  0.086813356   0.11490351    10.053037 
   75000   0.50574758  -0.74059929  0.087485542   0.10539656    10.142996 
   76000   0.50529279  -0.71661376  0.086894024   0.12810847    10.110632 
   77000   0.49836513  -0.73944882   0.08680202  0.094791443    9.9445761 
   78000   0.50103279  -0.72195164  0.086812066   0.11629957    10.053192 
   79000   0.49367589  -0.72067402  0.086672941   0.10640433    10.113699 
   80000   0.50049727  -0.74173189  0.087229313  0.096133404    10.103841 
   81000   0.50132428  -0.71215231  0.087482419   0.12720642    10.044694 
   82000   0.51147375  -0.72183776  0.087767523   0.13302807    10.336034 
   83000   0.50635951  -0.72813547  0.086756537   0.11804912    10.120682 
   84000   0.51448047  -0.72566105  0.086698384   0.13264505    10.021837 
   85000    0.5056205  -0.71681532  0.087287401   0.12879179    10.203788 
   86000   0.51084127  -0.73075261  0.086825052   0.12222216    10.065234 
   87000   0.49712001  -0.72682494  0.087041937   0.10578782    10.025498 
   88000   0.51252077  -0.72466078  0.086945272   0.13095308    10.297445 
   89000   0.49966416  -0.72168018  0.086904906   0.11461123    10.158752 
   90000   0.49381676   -0.7343445  0.086562141   0.09283433    10.118997 
   91000   0.49719242  -0.72521253  0.086861309   0.10732821    9.8689979 
   92000   0.49974224  -0.73135747  0.086379813   0.10452595    10.211649 
   93000   0.50017774  -0.72200786  0.086512079   0.11466099     10.19202 
   94000   0.50516878  -0.72751849  0.086855861    0.1169796    10.354485 
   95000   0.50066555  -0.72739478  0.086890725   0.11038432    10.024305 
   96000   0.50664941  -0.72999355   0.08670208   0.11657137    10.127309 
   97000   0.50176231  -0.74420078  0.087254134  0.095586611    10.397981 
   98000   0.49673385  -0.73534652  0.086808906  0.096454076    9.8932148 
   99000   0.50597439  -0.73476467  0.086973313    0.1110591    10.063055 
  100000   0.50653902  -0.72817978  0.086791386   0.11830888    10.018898 
  101000   0.49473058  -0.73553734  0.087170979  0.093620855    9.9480788 
  102000   0.50367309  -0.72744794  0.086700392   0.11465147    10.174741 
  103000   0.49972903  -0.73308289   0.08729246   0.10369337    10.178665 
  104000   0.50534059  -0.73605643  0.087455962   0.10929943    10.024657 
  105000   0.50465331  -0.73405647  0.086940384   0.10975305    10.213821 
  106000   0.50591337  -0.74458839  0.086799087   0.10096963    10.574709 
  107000   0.50544113  -0.73421477  0.087292617   0.11112854    10.036401 
  108000   0.49938095  -0.72013324   0.08659448     0.115423    9.9639494 
  109000   0.49711837  -0.73719256  0.086558429  0.094934247    10.148371 
  110000   0.49246079   -0.7363614  0.086498235   0.08871987    10.162289 
  111000   0.50257612  -0.73893586  0.087566857   0.10238479    10.031003 
  112000    0.5038751  -0.73788958  0.086458907   0.10427131     10.14397 
  113000   0.50363858  -0.72812784  0.087099032   0.11431846    10.233057 
  114000   0.48901344  -0.72516776  0.087173612  0.095418614    9.9705745 
  115000   0.50329453  -0.73628337   0.08649671   0.10504459    10.037372 
  116000   0.50150039  -0.73303067  0.086463018   0.10557279    10.415088 
  117000   0.49895233  -0.73291981  0.087213624   0.10261273    10.093068 
  118000   0.51221781  -0.73625153  0.086820102   0.11878279     10.04789 
  119000   0.50007974  -0.73261038  0.086710694    0.1041101    10.108585 
  120000   0.50001938  -0.72190446    0.0866319    0.1146467    10.274805 
  121000   0.49193809  -0.73263518  0.086808343  0.091972257    10.270233 
  122000   0.49836609  -0.73864371  0.086797665  0.095593638    10.081244 
  123000    0.4993273  -0.73466843  0.086370235   0.10058309    9.9962848 
  124000   0.50030352  -0.72790191  0.086789553   0.10923304    10.047774 
  125000   0.50083225  -0.73763924  0.087171246   0.10067038    10.172267 
  126000      0.49963  -0.73036756  0.086957699   0.10592541    10.160154 
  127000   0.49425937  -0.73384758  0.087030662  0.094463598    10.048895 
  128000   0.49917792  -0.72934527  0.086730702   0.10604269    9.9535436 
  129000   0.50250024  -0.73444481  0.086988162   0.10618334    9.9548587 
  130000   0.50031406   -0.7269441  0.086867628   0.11028474    10.366626 
  131000   0.51060262  -0.71954597   0.08671692   0.13296274    10.389815 
  132000      0.50123  -0.73337483  0.086805031   0.10516513    9.9457496 
  133000   0.50309051  -0.72064877  0.086513548   0.12039005    10.349313 
  134000   0.49924942  -0.72388102  0.086859936    0.1117434    10.054759 
  135000   0.50109117  -0.72546745  0.086653688   0.11271294    10.268132 
  136000   0.49212205  -0.71225669  0.087019784   0.11283809    10.106083 
  137000   0.50102678   -0.7275322  0.087072103   0.11097003    10.073414 
  138000   0.49510657  -0.73554778  0.086510286  0.093513633    10.204879 
  139000   0.49352582  -0.71445292  0.086908241   0.11263566      10.1486 
  140000     0.503324  -0.72897161  0.086714115   0.11261797    10.213984 
  141000   0.49107825  -0.73556094  0.087048561  0.087997145    9.9365708 
  142000   0.50348609  -0.72834654  0.087219028   0.11399105    10.469136 
  143000   0.49810306  -0.70910194  0.087055238    0.1249985    9.9805857 
  144000   0.49759583  -0.72333212  0.087168967   0.11012132    10.141697 
  145000   0.50020115  -0.72540038  0.086718864   0.11151035    10.021221 
  146000   0.50156273  -0.72551629  0.086903855    0.1136215    10.270813 
  147000   0.49893485  -0.71814648  0.086818055   0.11696428    10.387294 
  148000    0.5024145  -0.71380464  0.086697115   0.12640389    9.9891125 
  149000   0.49777269   -0.7405275  0.086315149  0.092337366      10.3825 
  150000   0.49241952  -0.71743789  0.087051636   0.10813487    9.9777553 
  151000    0.5031751  -0.73371542  0.086690536   0.10762726    10.146043 
  152000   0.49980565  -0.71684139  0.086539509   0.11929683    9.9498684 
  153000   0.49737469  -0.72152105  0.087296576   0.11172833    10.245775 
  154000   0.49500763  -0.72225042  0.087005669   0.10715798    10.152764 
  155000    0.4975478  -0.73215108  0.087100168   0.10116152    10.398639 
  156000   0.49747091   -0.7349965  0.086657652  0.097758262    10.307526 
  157000   0.49772736  -0.72063102  0.087283356   0.11313406    10.071323 
  158000   0.51205277  -0.73202325  0.087306899   0.12325035    10.355016 
  159000   0.50493428  -0.73518457  0.087030557   0.10913651    10.174375 
  160000   0.50538461   -0.7263724  0.086555877    0.1181494    9.9971638 
  161000   0.50662551  -0.71420287  0.086927085   0.13255122    10.062775 
  162000   0.49666259  -0.72462255  0.086861972   0.10712422    9.9217633 
  163000   0.49578692  -0.74085795   0.08653593  0.089249469    10.021683 
  164000   0.49690838  -0.73158234   0.08705789   0.10072898    10.071129 
  165000    0.4955347  -0.73788442  0.087114239   0.09242304    10.220474 
  166000   0.49619933  -0.72693195  0.087044632    0.1043027    10.048963 
  167000   0.50326325  -0.72503241  0.086791658    0.1165436    10.267285 
  168000   0.49738602  -0.72280676  0.086861374    0.1100244    10.140924 
  169000   0.49186869   -0.7251701  0.086843216  0.099368124    10.084945 
  170000   0.50530366  -0.71904432  0.087104776   0.12590496    10.183061 
  171000   0.49627502  -0.72395263  0.086941001   0.10729192    10.040267 
  172000   0.49870607  -0.72619265  0.086854209   0.10861113    10.083516 
  173000   0.49564051  -0.72443904  0.086886255   0.10579913    10.359708 
  174000   0.49675917  -0.70730475  0.086599221   0.12432413    10.186315 
  175000   0.50042171  -0.71827328  0.086947655   0.11919704    10.224986 
  176000   0.50438728  -0.73092684  0.086886654   0.11242996    10.109785 
  177000   0.49318315  -0.73076317  0.086817994  0.095721247    10.078109 
  178000   0.49687277  -0.72015209  0.087064429   0.11211237     10.15198 
  179000   0.49893379   -0.7161208  0.086866791   0.11903709    10.168161 
  180000   0.49906778  -0.72338558  0.087189638   0.11229613    9.9673149 
  181000   0.49863791  -0.71788778  0.086642485   0.11660206    9.9829605 
  182000   0.50828782  -0.73448969  0.086753243   0.11458365    10.190096 
  183000   0.50543137  -0.72559766  0.086778176   0.11921657    9.9445971 
  184000   0.49652421  -0.72190671  0.086791413   0.10956198     10.13624 
  185000   0.50461657  -0.72701925  0.086652854   0.11644763    10.204304 
  186000   0.49378411   -0.7429224  0.086899451  0.084544769    10.301393 
  187000   0.49562719  -0.70976867  0.086848003   0.12041128    9.8065305 
  188000   0.49265628  -0.72932147  0.086896571   0.09645132    10.113547 
  189000    0.5101303  -0.71981213  0.086808076   0.13207937    9.8607652 
  190000    0.5027078  -0.73450075   0.08722839   0.10667894    9.9980577 
  191000   0.50410211  -0.72584105  0.086961067   0.11716248    10.372944 
  192000   0.49883629  -0.73619377  0.087155339  0.099106453    9.9977624 
  193000   0.49925045  -0.73396242  0.086976437   0.10178005    10.050167 
  194000   0.50372576  -0.73440384  0.087631719   0.10870589    10.041196 
  195000   0.50297608  -0.73660933  0.087388632   0.10513297    10.119835 
  196000   0.49356263  -0.72005686  0.086953783   0.10713247     10.02312 
  197000   0.49548679  -0.72169317  0.086964451   0.10839265    10.024588 
  198000    0.5023799  -0.72865512  0.087071472   0.11187588    10.142243 
  199000   0.50131878  -0.72469114  0.086420054   0.11359699    9.9032075 
  200000   0.50123995  -0.71028604  0.086822922   0.12828673    10.008745 
Loop time of 593.187 on 1 procs for 200000 steps with 6830 atoms

Performance: 145653.875 tau/day, 337.162 timesteps/s
99.8% CPU use with 1 MPI tasks x no OpenMP threads

MPI task timing breakdown:
Section |  min time  |  avg time  |  max time  |%varavg| %total
---------------------------------------------------------------
Pair    | 103.61     | 103.61     | 103.61     |   0.0 | 17.47
Bond    | 0.30481    | 0.30481    | 0.30481    |   0.0 |  0.05
Neigh   | 369.85     | 369.85     | 369.85     |   0.0 | 62.35
Comm    | 23.201     | 23.201     | 23.201     |   0.0 |  3.91
Output  | 0.053891   | 0.053891   | 0.053891   |   0.0 |  0.01
Modify  | 90.759     | 90.759     | 90.759     |   0.0 | 15.30
Other   |            | 5.404      |            |       |  0.91

Nlocal:    6830 ave 6830 max 6830 min
Histogram: 1 0 0 0 0 0 0 0 0 0
Nghost:    11009 ave 11009 max 11009 min
Histogram: 1 0 0 0 0 0 0 0 0 0
Neighs:    43220 ave 43220 max 43220 min
Histogram: 1 0 0 0 0 0 0 0 0 0

Total # of neighbors = 43220
Ave neighs/atom = 6.32796
Ave special neighs/atom = 0.00849195
Neighbor list builds = 19634
Dangerous builds = 15986

write_data      final.data
Total wall time: 0:23:22
