LAMMPS (3 Mar 2020)
# chain on a wall - Langevin thermostat

# units, simulation style, boundaries
units		lj
atom_style	bond
boundary        p p f

# read in file
read_data       start.data
  orthogonal box = (-21 -18.1865 0) to (21 18.1865 90)
  1 by 1 by 1 MPI processor grid
  reading atoms ...
  1620 atoms
  scanning bonds ...
  1 = max bonds/atom
  reading bonds ...
  19 bonds
  2 = max # of 1-2 neighbors
  2 = max # of 1-3 neighbors
  4 = max # of 1-4 neighbors
  6 = max # of special neighbors
  special bonds CPU = 0.000258923 secs
  read_data CPU = 0.00246382 secs

# set pair potential
pair_style      lj/cut 2.5
pair_coeff      * * 1.0   1.0 1.12246
pair_coeff      1 4 200.0 1.0 2.5
pair_coeff      4 4 0.00 0.00 0.000
## add pair coeff. for lj potential of monomers
## add pair coeff. to attatch chain on the wall

# set bonding potential
bond_style      fene
bond_coeff      1 30 1.5 1.0 1.0
special_bonds   fene
  2 = max # of 1-2 neighbors
  6 = max # of special neighbors
  special bonds CPU = 0.000153065 secs

# change timestep [LJ units]
timestep        0.002

# define groups
group           chain type 1 2 3
20 atoms in group chain
group           wall type 4
1600 atoms in group wall
group           end type 3
1 atoms in group end

# time integration + thermostat
fix		1 chain nve
fix             2 chain langevin  1.2 1.2 0.5 1337

# move the wall at linear velocity along x
fix             3 wall move linear 0.50 0.00 0.00

# measure extension / position / etc. of chain
compute         z end reduce ave z
fix             z end ave/time 1000 1 1000 c_z file z.txt

compute         rg chain gyration
fix             rg chain ave/time 1000 1 1000 c_rg file rg.txt

## dump a movie if you want
#dump           1 all xyz 1000 film.xyz

dump            2 all dcd 1000 film.dcd
dump_modify     2 unwrap yes

# thermodynamic output, Nr. of time steps
thermo          1000
run             1000000
Neighbor list info ...
  update every 1 steps, delay 10 steps, check yes
  max neighbors/atom: 2000, page size: 100000
  master list distance cutoff = 2.8
  ghost atom cutoff = 2.8
  binsize = 1.4, bins = 31 26 65
  1 neighbor lists, perpetual/occasional/extra = 1 0 0
  (1) pair lj/cut, perpetual
      attributes: half, newton on
      pair build: half/bin/newton
      stencil: half/bin/3d/newton
      bin: standard
Per MPI rank memory allocation (min/avg/max) = 5.208 | 5.208 | 5.208 Mbytes
Step Temp E_pair E_mol TotEng Press 
       0            0  -0.39028792   0.24439395  -0.14589397 -0.0084294926 
    1000  0.094960804  -0.56282539   0.25330469  -0.16716742 -0.0026687458 
    2000  0.096932586  -0.56251138   0.24253127  -0.17467098 -0.0022964838 
    3000  0.097005476  -0.56282129   0.24533386  -0.17206903 -0.0019035471 
    4000  0.098142967  -0.56398437   0.24413233  -0.17272847 -0.0016507019 
    5000   0.10027344  -0.56413387   0.24252141  -0.17129515 -0.0016005787 
    6000  0.096066853  -0.56302611   0.24682929  -0.17218549 -0.0019266118 
    7000   0.09887273  -0.56226964   0.24487839   -0.1691737 0.00044505435 
    8000   0.10072225  -0.56353696    0.2489736  -0.16357324 -0.0021864283 
    9000  0.096822122  -0.56325893   0.24295494  -0.17516046 -0.0014163777 
   10000  0.093792345  -0.56335228   0.24585804  -0.17689256 -0.0015453233 
   11000  0.097259389  -0.56383727   0.24807696  -0.16996128 -0.00092701459 
   12000  0.093987915  -0.56378179   0.24496001  -0.17792694 -0.0010166701 
   13000  0.098484647  -0.56251405   0.24694073  -0.16793753 -0.0028601849 
   14000  0.099578693  -0.56123679   0.24646095  -0.16550001 -0.00048354715 
   15000  0.098717528  -0.56388262   0.24280338  -0.17309435 -0.0016258362 
   16000  0.096938929  -0.56281756   0.24922078  -0.16827814 -0.0015392545 
   17000  0.097903231  -0.56354974   0.24709838  -0.16968716 -0.0024173762 
   18000  0.097122363  -0.56398989    0.2437066  -0.17468967 -0.0014896882 
   19000  0.094494011  -0.56432892    0.2450849   -0.1775905 -0.0014885589 
   20000  0.099639917  -0.56097094   0.24374902   -0.1678543 -0.0013201998 
   21000  0.098517914  -0.56240851   0.24813963  -0.16658323 -0.0016461684 
   22000  0.097903423  -0.56358835    0.2466112  -0.17021267 -0.0021143192 
   23000   0.10162854  -0.56318069   0.24795269  -0.16287929 -0.002456253 
   24000   0.10041087  -0.56423372   0.25050472  -0.16320567 -0.0020689402 
   25000  0.095099276  -0.56290029   0.24766561  -0.17267381 -0.0018877376 
   26000  0.096300745  -0.56240597   0.24144549  -0.17659852 -0.0023676997 
   27000  0.097901684  -0.56343295   0.24706327   -0.1696078 -0.0021962147 
   28000  0.097056796  -0.56280971   0.24637249  -0.17094189 -0.0019571802 
   29000  0.098923882  -0.56319404   0.25387629  -0.16102352 -0.0030012184 
   30000  0.096424956  -0.56423429   0.25107026  -0.16861588 -0.0018446792 
   31000   0.10029179  -0.56106198   0.25411946   -0.1565977 -0.0027168065 
   32000   0.09725813  -0.56370082   0.24619106  -0.17171262 -0.0023421685 
   33000   0.09562569  -0.56485206    0.2448522  -0.17664986 -0.0014708967 
   34000   0.10209329  -0.56371861   0.24694251  -0.16373069 -0.0028023354 
   35000   0.10048583  -0.56355337   0.24704184  -0.16587582 -0.0019970186 
   36000  0.097771592   -0.5642849   0.25329209  -0.16442595 -0.0022291669 
   37000  0.098634654  -0.56343132    0.2518138  -0.16375687 -0.0017403119 
   38000  0.098801717  -0.56328622    0.2451156  -0.17005953 -0.0020201029 
   39000  0.098794253  -0.56468899   0.24843784  -0.16815124 -0.0016831996 
   40000  0.092513941  -0.56266976   0.24614595  -0.17783856 -0.0025778101 
   41000  0.099645897  -0.56398961   0.24652022   -0.1680928 -0.0025084414 
   42000  0.097293743  -0.56208913   0.24121351  -0.17502509 -0.00041713037 
   43000   0.09737622  -0.55993978   0.24990863  -0.16405698 -0.0034336991 
   44000  0.099437828  -0.56323254   0.24784701  -0.16632086 -0.0013271223 
   45000  0.098782075  -0.56523993   0.24429752  -0.17286076 -0.0023177211 
   46000  0.094315358  -0.56266498   0.24611959  -0.17515969 -0.0020647022 
   47000   0.10190746  -0.56270252   0.24748268  -0.16245301 -0.00092943383 
   48000  0.098339474  -0.56423979   0.25303451  -0.16378712 -0.0020096572 
   49000   0.10080707  -0.56231318    0.2517489    -0.159447 -0.0025638856 
   50000  0.098248516  -0.56330453   0.24810741  -0.16791531 -0.0022734403 
   51000  0.093358248  -0.56369491   0.24707789  -0.17666609 -0.0026506858 
   52000  0.095559458  -0.56323805   0.24598598  -0.17400136 -0.0013130296 
   53000  0.097793186   -0.5651706   0.25427145  -0.16429992 -0.0025541076 
   54000   0.10243367  -0.56161679   0.24483249  -0.16322865 -0.00077866553 
   55000  0.097948723   -0.5634142   0.24854552  -0.16803629 -0.0031161577 
   56000  0.099827667  -0.56298507   0.24842489  -0.16491111 -0.0024822173 
   57000   0.10025901  -0.56383584   0.24928977  -0.16425039 -0.0019352919 
   58000  0.095724545   -0.5605145   0.24587258  -0.17114374 -0.001545363 
   59000    0.0940601  -0.56237434   0.24726451  -0.17410677 -0.0027787746 
   60000   0.09403422   -0.5619902   0.24530276  -0.17572318 -0.0035744359 
   61000  0.096466742  -0.56359044   0.24489461  -0.17408503 -0.0023455838 
   62000  0.098738882  -0.56215519   0.24703129    -0.167107 -0.0018344616 
   63000  0.098830541  -0.56303008   0.24403257  -0.17084321 -0.002144332 
   64000  0.098670015  -0.56279892   0.24515251  -0.16973274 -0.0026461003 
   65000  0.099772736  -0.56417691    0.2473202  -0.16728998 -0.0011369452 
   66000  0.097011324  -0.56339506   0.24680769  -0.17116021 -0.0023449633 
   67000   0.09796499  -0.56483738   0.24709921   -0.1708814 -0.0020164056 
   68000  0.094155316  -0.56264393   0.24940146  -0.17209667 -0.0018672586 
   69000  0.093662662  -0.56406763    0.2447907  -0.17886966 -0.0017909577 
   70000  0.097061248  -0.56232223   0.24690726  -0.16991297 -0.002859189 
   71000  0.096815353  -0.56304956   0.24694488  -0.17097129  -0.00270178 
   72000  0.096572384  -0.56282169   0.24267093   -0.1753816 -0.0026261025 
   73000   0.09412931  -0.56273141   0.24307714  -0.17854746 -0.002555537 
   74000  0.097627686  -0.56454724   0.24454291   -0.1736532 -0.0020654614 
   75000  0.094953701  -0.56224293   0.24525234  -0.17464796 -0.0017782065 
   76000  0.096905667  -0.56123763   0.24347829  -0.17249056 -0.0032676335 
   77000  0.097310064  -0.56346019    0.2460253   -0.1715599 -0.0020841338 
   78000   0.10413577  -0.56224751   0.24458059  -0.16155968 -0.00052726789 
   79000   0.09880772  -0.56136924   0.24953683  -0.16371232 -0.00076403083 
   80000  0.097554369  -0.56493746   0.24976493  -0.16893131 -0.0018615082 
   81000  0.097572897  -0.56216215    0.2537135  -0.16217965 -0.0018567314 
   82000  0.099920318  -0.56203339   0.24616212   -0.1660833 -0.0025913894 
   83000   0.10084908  -0.55982404   0.24644178  -0.16220202 -0.00054687406 
   84000  0.096590177  -0.56353849   0.24961614  -0.16912653 -0.0019543996 
   85000    0.1023371  -0.56427828   0.24664567  -0.16422171 -0.0020620965 
   86000  0.097230406  -0.56322546   0.24755818   -0.1699117 -0.0023561417 
   87000  0.094537867  -0.56356831    0.2440055  -0.17784355 -0.0008742293 
   88000  0.093512797   -0.5643862   0.24346343  -0.18074016 -0.0022948433 
   89000   0.10050022  -0.56351815   0.24426524  -0.16859564 -0.0015852789 
   90000  0.098134111  -0.56275418   0.24918647   -0.1664574 -0.0028278383 
   91000  0.097096628  -0.56151327   0.24587103   -0.1700872 -0.0029162349 
   92000   0.10002792  -0.56341219   0.24780462   -0.1656583 -0.0013514744 
   93000   0.09814214  -0.56235666   0.24343262   -0.1718017 -0.0015068564 
   94000    0.0988133  -0.56229124    0.2468891  -0.16727368 -0.0011623948 
   95000  0.099095106  -0.56310709   0.24206615  -0.17249003 -0.00071009091 
   96000  0.097167163   -0.5650929   0.24490304  -0.17452908 -0.0030648052 
   97000  0.092804401  -0.56299074   0.24945263  -0.17441743 -0.00093381012 
   98000  0.099766094  -0.56331736   0.24677495  -0.16698565 -0.0013101628 
   99000   0.09879735  -0.56356202   0.25042212  -0.16503535 -0.0017706626 
  100000  0.093756857  -0.56225984    0.2457283  -0.17598307 -0.0016339292 
  101000  0.098828337  -0.56246524   0.24508413  -0.16923011 -0.0031542699 
  102000  0.097183391  -0.56345305   0.24606304  -0.17170491 -0.0026264137 
  103000  0.098575326  -0.56272291   0.24800013  -0.16695106 -0.0027875999 
  104000  0.099404268  -0.56129868   0.24390712  -0.16837719 -0.0004770263 
  105000    0.1034212  -0.56365478    0.2454184  -0.16320033 -0.0024607558 
  106000  0.096856566  -0.56329224   0.24305927   -0.1750378 -0.0018518815 
  107000   0.10192768  -0.56303033   0.24490278  -0.16533041 -0.0022310359 
  108000  0.095767058  -0.56321912   0.24946092  -0.17019628 -0.001700054 
  109000  0.098033383  -0.56367884   0.24780548  -0.16891406 -0.0016783551 
  110000  0.099767981  -0.56385332   0.24273863  -0.17155509 -0.0016674794 
  111000  0.097979697  -0.56333615   0.25189225  -0.16456507 -0.0023093344 
  112000  0.099913236  -0.56251275   0.25249414  -0.16024127 -0.0014146159 
  113000   0.10014858  -0.56485155   0.24568898  -0.16903243 -0.0012265248 
  114000  0.099690337  -0.56292689   0.25129147  -0.16219222 -0.0024669425 
  115000  0.095127357  -0.56178776   0.24442726  -0.17475755 -0.0022477267 
  116000  0.095860002  -0.56310089   0.24604186  -0.17335778 -0.0029375437 
  117000  0.097615046  -0.56349003    0.2479175  -0.16924034 -0.0013546125 
  118000  0.098504546   -0.5603386   0.24414345  -0.16852954 -0.0003358706 
  119000   0.10059049  -0.56092826   0.24279375  -0.16734192 -0.0010431745 
  120000  0.095702358   -0.5631676   0.24288901  -0.17681366 -0.0026686077 
  121000  0.097266816  -0.56348766   0.25002786  -0.16764964 -0.001639933 
  122000   0.09965208  -0.56257844   0.24690847  -0.16628412 -0.0025309234 
  123000  0.095730853  -0.56365774   0.25047446  -0.16967564 -0.0023582014 
  124000    0.1039035  -0.56051152   0.24800352  -0.15674896 -0.0012175918 
  125000    0.0991229  -0.56341743   0.24642685  -0.16839801 -0.002265911 
  126000  0.094835985  -0.56435687   0.24624587  -0.17594483 -0.0014297252 
  127000   0.10208199  -0.56237097   0.24937082  -0.15997168 -0.0023974258 
  128000   0.10446698  -0.56393637   0.24706694  -0.16026569 -0.0022923617 
  129000  0.099377459  -0.56423103   0.24891813  -0.16633872 -0.0012015806 
  130000  0.094142419  -0.56371481   0.25067111  -0.17191724 -0.0024979302 
  131000  0.095851417  -0.56362617   0.24679172  -0.17314607 -0.0017740265 
  132000  0.091313297  -0.56397524   0.24771781  -0.17937203 -0.001437175 
  133000  0.098553478  -0.56375287   0.24563233  -0.17038157 -0.001437812 
  134000  0.098350006  -0.56262488    0.2475525  -0.16763844 -0.0017327491 
  135000  0.099874424  -0.56394645   0.24631912  -0.16790818 -0.0021285779 
  136000   0.09216057  -0.56311541   0.24611811  -0.17884178 -0.002359533 
  137000  0.096534829  -0.56096801   0.24636204  -0.16989311 -0.0021959919 
  138000  0.097554676  -0.56419578   0.24355267  -0.17440142 -0.0021896259 
  139000  0.099136098  -0.56221849   0.24749717  -0.16610897 -0.0016183345 
  140000  0.099001989  -0.56300476   0.24886607  -0.16572737 -0.0023898587 
  141000  0.092879667  -0.56147475   0.24983227  -0.17240898 -0.0037522547 
  142000   0.10057907  -0.56297688   0.25013276  -0.16206865 -0.0019755902 
  143000  0.096620837  -0.56458126   0.24453314  -0.17520633 -0.0015664073 
  144000  0.097084303  -0.56294184   0.24465042  -0.17275486 -0.0023070372 
  145000   0.10062863  -0.56208268   0.24396147  -0.16727144 -0.0020928828 
  146000   0.10608549  -0.56194272   0.24982798  -0.15308473 -0.0026896256 
  147000  0.098315886  -0.55997779   0.24465544  -0.16793956 -0.0010772485 
  148000   0.10172497  -0.56399774   0.24804369  -0.16346078 -0.0024483104 
  149000  0.094263499  -0.56418152   0.25196819  -0.17090536 -0.002486357 
  150000  0.095597269  -0.56199564   0.25124114  -0.16744711 -0.0017524944 
  151000  0.098051244   -0.5637521   0.24747026  -0.16929577 -0.0013138964 
  152000  0.094204771  -0.56418653   0.24551177  -0.17745482 -0.0015934772 
  153000  0.099445258  -0.56317171   0.24078506  -0.17331084 -0.00083357503 
  154000    0.1041529  -0.56452222    0.2475397  -0.16084961 -0.0017920894 
  155000  0.093565752  -0.56226728   0.24662536  -0.17537992 -0.0025484634 
  156000  0.099338777  -0.56165001   0.24419333   -0.1685405 -0.0017656481 
  157000   0.10073723  -0.56302478   0.25502287  -0.15698934 -0.0024128896 
  158000  0.097173827  -0.56367119   0.24100883  -0.17699159 -0.0021169777 
  159000  0.099636985  -0.56322377    0.2470078  -0.16685275 -0.0018834439 
  160000  0.098807296  -0.56365415    0.2450015  -0.17053319 -0.0017840457 
  161000  0.094578617   -0.5626906   0.24782332  -0.17308692 -0.0026201354 
  162000  0.098360508  -0.56204947   0.24671556  -0.16788422 -0.0016422245 
  163000   0.09932112  -0.56318268   0.24360157   -0.1706914 -0.001496752 
  164000  0.097638637   -0.5640227   0.24746782  -0.17018734 -0.00091478106 
  165000   0.10034669  -0.56433162   0.24844129  -0.16546321 -0.0016307207 
  166000  0.098057623   -0.5631361   0.24854104  -0.16759942 -0.00070460961 
  167000  0.098005916  -0.56294824   0.24480965  -0.17122047 -0.0014369837 
  168000  0.099787734  -0.56343822    0.2449129  -0.16893612 -0.0018956687 
  169000   0.10180012  -0.56453369   0.24324745  -0.16868031 -0.0015120437 
  170000   0.10119555  -0.56393067   0.24332698  -0.16890405 -0.0022801872 
  171000  0.099187216  -0.56182593   0.25167845   -0.1614585 -0.001546196 
  172000    0.1004198  -0.56367467   0.25277947  -0.16035848 -0.0020348223 
  173000  0.099113712  -0.56273584   0.24141807  -0.17273898 -0.0022372328 
  174000  0.097416131  -0.56322901    0.2507902  -0.16640481 -0.0025174692 
  175000  0.097119022  -0.56202055   0.24610806  -0.17032389 -0.0034966063 
  176000  0.099834441  -0.56211688   0.24367754  -0.16878011 -0.00058564345 
  177000   0.10173212   -0.5636642   0.24510694  -0.16605328 -0.0019939065 
  178000  0.093303852  -0.56410143   0.25046869  -0.17376335 -0.0029397875 
  179000  0.098829218  -0.56311685    0.2495686  -0.16539593 -0.0026910317 
  180000   0.09520935  -0.56454599    0.2439855  -0.17783462 -0.0022591141 
  181000  0.095214617  -0.56349533   0.24664622  -0.17411534 -0.0019173747 
  182000   0.10346951  -0.56155598   0.24759905  -0.15884847 -0.0020751234 
  183000  0.096077643  -0.56288088   0.24599096  -0.17286241  -0.00188267 
  184000  0.099375039  -0.56260582   0.24649513  -0.16714015 -0.0014021886 
  185000  0.095927142  -0.56351421   0.24757977  -0.17213255 -0.0025481527 
  186000  0.097808509  -0.56496879   0.24381884  -0.17452775 -0.0023266336 
  187000  0.098930005  -0.56357766   0.25238702  -0.16288724 -0.0017424278 
  188000  0.095043664   -0.5652105   0.24303506  -0.17969794 -0.0013338363 
  189000  0.096492525  -0.56221603   0.24525995  -0.17230664 -0.00090613103 
  190000   0.10030108  -0.56302197   0.24878323  -0.16387999 -0.0014459709 
  191000   0.09929265  -0.56252248   0.24766146  -0.16601398 -0.0018506759 
  192000  0.094577837   -0.5639318   0.24435616  -0.17779646 -0.0025604723 
  193000   0.10248552  -0.56253984   0.24676194  -0.16214451 -0.0011519607 
  194000   0.10026808  -0.56432338   0.24632353  -0.16769057 -0.0020199604 
  195000  0.098399882  -0.56188387   0.25092528  -0.16344987 -0.0019453339 
  196000  0.096234059  -0.56264872   0.24490982  -0.17347692 -0.00094657144 
  197000  0.097781833  -0.56290775    0.2466914  -0.16963414 -0.001803289 
  198000  0.096807617  -0.55814194   0.24722082  -0.16579933 0.00086849983 
  199000   0.10057205  -0.56274537   0.25030468  -0.16167574 -0.002967152 
  200000  0.094437211  -0.56281018   0.24430643  -0.17693538 -0.0028337318 
  201000   0.10034321   -0.5599618   0.25091924  -0.15862065 -0.00053090726 
  202000   0.10157302  -0.56192439   0.24651398  -0.16314493 -0.0007738026 
  203000  0.096009143  -0.56238751   0.24373455  -0.17472814 -0.00054806236 
  204000  0.094455336  -0.56305164   0.24974973  -0.17170637 -0.0029647505 
  205000  0.099248951  -0.56374637   0.24229278  -0.17267206 -0.0019565035 
  206000   0.10561013  -0.56486392   0.24695115  -0.15959536 -0.0017900296 
  207000  0.098539681  -0.56469628   0.24803905  -0.16893895 -0.002621099 
  208000   0.09300942   -0.5631277   0.24497347  -0.17872623 -0.00083370898 
  209000    0.1018225  -0.56370318   0.24409664  -0.16696707 -0.0011513637 
  210000   0.10425781  -0.56275085   0.24936737   -0.1570933 -0.0019177297 
  211000  0.094113639  -0.56351722   0.24722815  -0.17520575 -0.0025247915 
  212000  0.093972917     -0.56281   0.24499923  -0.17693841 -0.0014741143 
  213000  0.098467704  -0.56385392   0.24441062  -0.17183292 -0.0028102943 
  214000  0.098838194  -0.56291081   0.25181291  -0.16293213 -0.0025161822 
  215000   0.09801319  -0.56257897   0.24403077  -0.17161917 -0.0020350997 
  216000   0.10153954   -0.5651678    0.2467636  -0.16618891 -0.0019957833 
  217000   0.09580255  -0.56349797   0.24585828  -0.17402457 -0.0024337352 
  218000  0.091518092  -0.56268602   0.24371805  -0.18177557 -0.0029788078 
  219000  0.097809367  -0.56367835   0.24897474  -0.16808012 -0.0015089583 
  220000  0.097773309  -0.56375942   0.24746627  -0.16972371 -0.0017123519 
  221000  0.097737963  -0.56360156   0.24584452  -0.17124059 -0.00075268757 
  222000   0.09422702  -0.56177782   0.24521194  -0.17531261 -0.003301393 
  223000  0.098763791   -0.5609771   0.24469629  -0.16822657 -0.0026002462 
  224000  0.097629258   -0.5602483   0.25371039  -0.16018441 -0.0039116741 
  225000  0.097287091  -0.56392354   0.24245593  -0.17562705 -0.0013710206 
  226000   0.09818691  -0.56373694   0.24546658  -0.17108092 -0.0015553426 
  227000  0.097334778  -0.56271719   0.24918216  -0.16762299 -0.0023605368 
  228000    0.1030519  -0.56390296    0.2435219  -0.16589863 -0.0022303763 
  229000  0.094719739  -0.56361891   0.24599423  -0.17563278 -0.0026790415 
  230000  0.095338155  -0.56088341   0.24231228  -0.17565218 -0.0016128683 
  231000   0.10295276  -0.56422018   0.24667534  -0.16321103 -0.002517863 
  232000  0.094821291  -0.56172949   0.24908137  -0.17050399 -0.0012296484 
  233000   0.10259768  -0.56396637   0.24566623  -0.16449862 -0.0016387253 
  234000  0.094367465  -0.56158424   0.24845148  -0.17166894 -0.00041238956 
  235000   0.10333089  -0.56265171   0.24639002  -0.16136104 -0.001452954 
  236000  0.098145405  -0.56158434   0.24515507  -0.16930204 -0.00081506494 
  237000  0.099350497  -0.56536339    0.2478583  -0.16857134 -0.0013190306 
  238000  0.096636674  -0.56253394   0.24335812  -0.17431029 -0.0011922149 
  239000   0.10090721   -0.5642654   0.25039521   -0.1626028 -0.0023488699 
  240000  0.095442322  -0.56254096   0.24395766  -0.17550819 -0.0017685588 
  241000  0.095129419  -0.56220026   0.24619151  -0.17340271 -0.0014887356 
  242000  0.095524734  -0.56294812   0.24791371  -0.17183576 -0.002236405 
  243000  0.096177355  -0.56346962   0.24431736  -0.17497528 -0.001790532 
  244000   0.10000824   -0.5632874   0.24231211  -0.17105554 -0.0021152673 
  245000   0.09936129  -0.56192283   0.24690709   -0.1660658 -0.0024873666 
  246000  0.097516278   -0.5642273   0.24996484  -0.16807833 -0.0014086735 
  247000  0.096708421  -0.56362184   0.24186564  -0.17678311 -0.0024398021 
  248000   0.10335153  -0.56388103   0.24324739  -0.16570205 -0.0022149356 
  249000  0.097662368  -0.56251544   0.24778789  -0.16832443 -0.0031427899 
  250000   0.09932924  -0.56326185   0.24363565  -0.17072431 -0.0021978357 
  251000   0.09485137  -0.56242421   0.24741262  -0.17282236 -0.0025238561 
  252000   0.10288664  -0.56417387   0.24552947  -0.16440971 -0.0013190291 
  253000   0.10081171  -0.56306729   0.24736355  -0.16457953 -0.0011079034 
  254000  0.095472831  -0.56429018   0.25070145  -0.17046789 -0.0029505554 
  255000  0.095841107  -0.56332426   0.25048254   -0.1691688 -0.001560456 
  256000  0.097863617  -0.56472176   0.24225371  -0.17576324 -0.0016753051 
  257000   0.09732937  -0.56526986   0.25198875  -0.16737718 -0.0015900499 
  258000  0.098990066   -0.5615084   0.24680732  -0.16630765 -0.00083015787 
  259000   0.10322771   -0.5637421   0.24777137  -0.16122475 -0.0023526854 
  260000  0.093679722  -0.56184088   0.24518848  -0.17621956 -0.0034030731 
  261000  0.098260165  -0.56398246   0.24339803  -0.17328517 -0.0017267822 
  262000  0.098913489  -0.56260757   0.24361834  -0.17071058 -0.0011793334 
  263000  0.096137099  -0.56352099   0.24283104  -0.17657331 -0.0019204566 
  264000   0.10008246  -0.56349855   0.25101145  -0.16245607 -0.0020616786 
  265000  0.097559806  -0.56319793   0.24793214  -0.16901641 -0.0011601388 
  266000  0.097043319  -0.56355821   0.25080192  -0.16728117 -0.0022699006 
  267000   0.10404713  -0.56668077   0.24672248  -0.16398393 -0.0018225786 
  268000  0.096120745  -0.56276855   0.24444048  -0.17423595 -0.0012168756 
  269000  0.098404148  -0.56323122   0.25280762  -0.16290849 -0.0011332012 
  270000   0.10185642  -0.56196481   0.24686747  -0.16240703 -0.0025540561 
  271000  0.095014433  -0.56353506   0.24559115  -0.17551024 -0.0017786561 
  272000  0.096655704   -0.5637796   0.24530944   -0.1735761 -0.0021079513 
  273000  0.093797379  -0.56237362   0.24188714  -0.17987727 -0.0017834301 
  274000   0.10479676  -0.56318312   0.24423293   -0.1618521 -0.0021637948 
  275000  0.096552146  -0.56304156   0.24608622  -0.17221652 -0.0014458582 
  276000   0.10001862  -0.56105813   0.25321724  -0.15790556 -0.0026700257 
  277000   0.10047827  -0.56266125   0.24482836  -0.16720852 -0.0012613543 
  278000  0.096246712  -0.56366283   0.25196495  -0.16741693 -0.001755608 
  279000  0.098826309  -0.56297158   0.24424527  -0.17057836 -0.0023324059 
  280000   0.10068627  -0.56368563   0.24835448  -0.16439498 -0.0020855096 
  281000  0.095635569  -0.56265492   0.24707898  -0.17221114 -0.0027850078 
  282000   0.09339373  -0.56275649   0.24235268  -0.18039969 -0.0014654809 
  283000   0.10600945  -0.56405209   0.24641262  -0.15872345 -0.0020512952 
  284000   0.09951483  -0.56358171   0.24240998  -0.17199163 -0.0015604428 
  285000   0.10193177  -0.56358539    0.2480102  -0.16277192 -0.0013772696 
  286000    0.1004938  -0.56476619   0.24385099  -0.17026756 -0.0013180491 
  287000  0.096063882  -0.56221468    0.2472979  -0.17090991 -0.0028886113 
  288000  0.097270707  -0.56300462   0.24563447  -0.17155415 -0.0022293378 
  289000  0.095042779   -0.5629256   0.24435951  -0.17608992  -0.00148928 
  290000   0.09853829  -0.56452334   0.25597193  -0.16083522 -0.0028983417 
  291000  0.098515618  -0.56364695   0.24446657  -0.17149817 -0.0022853846 
  292000  0.098319805    -0.561097   0.24839475  -0.16531358 -0.0037542661 
  293000  0.095830152  -0.56436303   0.24895334  -0.17175319 -0.0011659007 
  294000   0.10033466  -0.56208579   0.24523262  -0.16644408 -0.0025830993 
  295000  0.096744952  -0.56281076   0.24847036  -0.16931254 -0.0019267047 
  296000  0.096085961  -0.56287875   0.24959441  -0.16924436 -0.002787128 
  297000   0.10058958  -0.56332299   0.24640433  -0.16612742 -0.0018186323 
  298000   0.09538877  -0.56286733    0.2453953   -0.1744772 -0.0023839402 
  299000   0.09872662  -0.56374949   0.24514815  -0.17060282 -0.0020500189 
  300000  0.096162969  -0.56357053   0.24333997  -0.17607516 -0.0015049783 
  301000  0.098264063  -0.56351292   0.24284575  -0.17336206 -0.0020083967 
  302000  0.094264928  -0.56324939   0.24623128    -0.175708 -0.0025740108 
  303000  0.095331955  -0.56233434   0.24449275  -0.17493192 -0.0021869803 
  304000  0.097280875  -0.56366047   0.24389328  -0.17393596 -0.0015417246 
  305000   0.10578056  -0.56258973   0.24418339  -0.15983345 -0.0019991721 
  306000  0.097719574  -0.56341229   0.24614634  -0.17077707 -0.0020835453 
  307000  0.098149873  -0.56422054   0.24523333  -0.17185328 -0.0019879303 
  308000   0.09612402  -0.56257493   0.24906651  -0.16941139 -0.0022668348 
  309000  0.094241392  -0.56161728    0.2476893  -0.17265315 -0.0018267714 
  310000  0.093919137  -0.56320896   0.24095639  -0.18146083 -0.0015198645 
  311000   0.10142352  -0.56388751   0.24902325  -0.16282289 -0.0017761347 
  312000   0.09571918  -0.56401127   0.24793149  -0.17258964 -0.0026603828 
  313000  0.094565074  -0.56499011   0.24139274  -0.18183732 -0.0013339497 
  314000  0.099269663  -0.56363933     0.242964  -0.17186275 -0.0021666091 
  315000  0.096593714    -0.563856   0.24447698  -0.17457789 -0.0016789675 
  316000   0.10301409  -0.56336582   0.24694179  -0.16199828 -0.0022301776 
  317000   0.09229656  -0.56169451   0.24385736  -0.17947777 -0.0031277814 
  318000  0.092653008  -0.56373591   0.25120773  -0.17363446 -0.0021260008 
  319000   0.10471431  -0.56345309    0.2466625  -0.15981609 -0.0019567617 
  320000  0.094324434  -0.55962673   0.24625679  -0.17197063 -0.0026995868 
  321000  0.099911973  -0.56563329   0.24490041  -0.17095743 -0.0019775131 
  322000  0.098545793   -0.5616903   0.24683755  -0.16712531 -0.00069911594 
  323000  0.094901093  -0.56230919   0.24894505  -0.17110037 -0.0020859519 
  324000  0.098086291  -0.56305496   0.24407462  -0.17194172 -0.00093560544 
  325000  0.096926794   -0.5635624   0.24487395  -0.17338801 -0.0013211146 
  326000  0.097947947   -0.5633321   0.24191366  -0.17458721 -0.001961993 
  327000   0.10122984  -0.56364858   0.24754225   -0.1643553 -0.0017801115 
  328000  0.096333472  -0.56168468   0.24461119  -0.17266248 -0.001484209 
  329000  0.097913353  -0.56330863   0.24615584  -0.17037342 -0.00094368884 
  330000  0.095070407  -0.56381469   0.24564088  -0.17565623 -0.0012349257 
  331000   0.09805781  -0.56278545   0.24485367  -0.17093586 -0.0013918698 
  332000  0.099855804  -0.56338936   0.24616009  -0.16753802 -0.0012326369 
  333000  0.097265775  -0.56314724   0.24970847  -0.16763017 -0.0023809267 
  334000   0.10231686  -0.56210453   0.24419697  -0.16452701 -0.0027784392 
  335000   0.10000225  -0.56441163    0.2457819  -0.16871894 -0.0022151199 
  336000  0.095146516  -0.56101747   0.24768011  -0.17070568 -0.0012761367 
  337000  0.098608465   -0.5615677   0.25411765  -0.15962865 -0.0013490034 
  338000  0.099476805   -0.5630338   0.24807799  -0.16583271 -0.0015465399 
  339000  0.099042775  -0.56476502   0.24684935  -0.16944321 -0.0023668967 
  340000   0.09862199   -0.5630057   0.24694892  -0.16821511 -0.002082018 
  341000  0.094771575  -0.56235993   0.24958401  -0.17070631 -0.0029734935 
  342000  0.094763776  -0.56192588   0.24626041  -0.17360755 -0.0014347973 
  343000  0.093157523  -0.56353944   0.24715505  -0.17673437 -0.0018859071 
  344000  0.097896801  -0.56248417   0.24250071   -0.1732289 -0.0024102655 
  345000   0.10466022  -0.56367321   0.24127845  -0.16550134 -0.0020364355 
  346000   0.10184467   -0.5617445   0.24796092  -0.16111087 -0.00098148221 
  347000   0.10229299  -0.56197675    0.2485883  -0.16004368 -0.0030112396 
  348000   0.10270763  -0.56373019   0.24830757  -0.16145628 -0.0013078341 
  349000   0.09559965  -0.56329398   0.24361416  -0.17636886 -0.00072369913 
  350000  0.098506163  -0.56410374   0.24632632  -0.17010938 -0.0010980338 
  351000   0.10015571   -0.5637803    0.2431883  -0.17045118 -0.0022361708 
  352000   0.10486357  -0.56312559   0.24543341  -0.16049393 -0.0017704755 
  353000    0.1015123  -0.56381033   0.25014128   -0.1614946 -0.0019901626 
  354000  0.098257899  -0.56211085   0.24415118   -0.1706638 -0.0024038594 
  355000  0.096231479  -0.56331457   0.24376047  -0.17529598 -0.0013403997 
  356000  0.096323782  -0.56291337   0.24326873  -0.17524815 -0.0025104467 
  357000  0.096057279  -0.56451726   0.24327749  -0.17724279 -0.0014846908 
  358000   0.10235592  -0.56411675   0.24785742  -0.16282022 -0.0024309132 
  359000  0.097375275  -0.56345843   0.25039193  -0.16709374 -0.001568502 
  360000  0.099377928   -0.5634509   0.24499339  -0.16948264 -0.0018041999 
  361000  0.095341413  -0.56324192   0.24763706  -0.17268101 -0.0017431768 
  362000   0.10225995  -0.56495197   0.24392463  -0.16773209 -0.00083465369 
  363000  0.097142525  -0.56349614   0.24795493  -0.16991736 -0.0014955261 
  364000   0.10089427  -0.56251045   0.24382367   -0.1674388 -0.00033981889 
  365000  0.094959355  -0.56438169   0.24712166  -0.17490892 -0.0026493742 
  366000  0.095578969  -0.56383887   0.24788871  -0.17267021 -0.0019073519 
  367000  0.099572007  -0.56296641   0.24716926  -0.16653133 -0.0016441243 
  368000  0.096995345  -0.56327517   0.25038752  -0.16748444 -0.0024049103 
  369000   0.10135821  -0.56410174   0.24505329  -0.16710498 -0.0019840155 
  370000  0.095836112  -0.56251633   0.24970709  -0.16914381 -0.002306817 
  371000   0.10163917  -0.56553993   0.24348258  -0.16969271 -0.0012792575 
  372000  0.097628861  -0.56373748   0.24197081  -0.17541378 -0.0015803218 
  373000  0.095315444  -0.56324171   0.24990484  -0.17045196 -0.002633904 
  374000  0.097249043  -0.56343924   0.24212142  -0.17553429 -0.0014643736 
  375000   0.09864331  -0.56294839   0.24270664  -0.17236812 -0.0011452213 
  376000  0.096892412  -0.56365872   0.24355065  -0.17485916 -0.00094313271 
  377000  0.097990675  -0.56288496   0.24604953  -0.16994015 -0.0020888633 
  378000  0.094482261  -0.56265814   0.24779002  -0.17323221 -0.0019561668 
  379000   0.10224317  -0.56106825   0.25557083  -0.15222734 -0.0036187657 
  380000  0.093807792  -0.56159174   0.24539152  -0.17557539 -0.0016584089 
  381000  0.096362095  -0.56341758    0.2434798  -0.17548386 -0.0025273949 
  382000  0.095299054  -0.56305312    0.2465672  -0.17362558 -0.0023109324 
  383000  0.098184519  -0.56281225   0.24549334  -0.17013304 -0.0017237944 
  384000   0.09624328  -0.56384449   0.24477673  -0.17479196 -0.0023446866 
  385000   0.10133777  -0.56226454   0.24654353  -0.16380819 -0.0014451451 
  386000   0.10204635  -0.56255106    0.2459393  -0.16363672 -0.0018970389 
  387000  0.097141962  -0.56412423   0.24453229  -0.17396895 -0.0010119587 
  388000  0.099233665  -0.56395423   0.24393568  -0.17125993 -0.0020670588 
  389000  0.097417655   -0.5619607   0.24618571  -0.16973871 -0.002036547 
  390000   0.09581293  -0.56297769   0.24692136  -0.17242565 -0.0021377788 
  391000   0.09704947  -0.56108197   0.24517273   -0.1704249 -0.00059056079 
  392000  0.097008073  -0.56369434   0.25333812  -0.16493393 -0.0018879535 
  393000  0.096401094   -0.5632441   0.24981299  -0.16891873 -0.00092423068 
  394000  0.094861449  -0.56343034    0.2508573   -0.1703687 -0.0019720079 
  395000  0.095269424  -0.56281639   0.24396735  -0.17603312 -0.0010588025 
  396000  0.099883877  -0.56326041   0.24632446  -0.16720262 -0.0021142815 
  397000  0.093746678  -0.56349363   0.24608435  -0.17687607 -0.0016862899 
  398000  0.099787138  -0.56194841   0.25285659  -0.15950351 -0.00065129281 
  399000  0.098898609  -0.56216297    0.2491271  -0.16477953 -0.0016085122 
  400000   0.10035286   -0.5637203   0.24426094    -0.169023 -0.0016848411 
  401000  0.096105796  -0.56280867   0.24935606   -0.1693829 -0.0018332624 
  402000  0.095784243  -0.56265755   0.24566895  -0.17340093 -0.0032120473 
  403000  0.098806608  -0.56382439   0.24484451  -0.17086146 -0.0018833787 
  404000  0.096426673  -0.56355723   0.24827871  -0.17072779 -0.0031080482 
  405000  0.097384674  -0.56332202   0.24752458   -0.1698106 -0.0023775335 
  406000  0.094699997  -0.56172246   0.24880005   -0.1709601 -0.0010193257 
  407000  0.094978796  -0.56327809   0.24952626  -0.17137158 -0.0013120638 
  408000  0.099989146  -0.56392845   0.24177131    -0.172266 -0.0012372509 
  409000  0.094136543  -0.56352808   0.24912341  -0.17328702 -0.0017703693 
  410000  0.097269393  -0.55979413   0.25050197  -0.16347814 -0.0024827686 
  411000  0.096640147   -0.5630465   0.24544064  -0.17273512 -0.0013578376 
  412000  0.097658267  -0.56275755   0.24743767   -0.1689229 -0.0019463183 
  413000  0.098159395   -0.5627872   0.24288023  -0.17275877 -0.0017405316 
  414000  0.097448208  -0.56198378   0.24535296  -0.17054874 -0.0025351826 
  415000  0.098106714  -0.56364308   0.25009037  -0.16648347 -0.0019188728 
  416000   0.10118964  -0.56351747   0.24642185  -0.16540485 -0.0020323324 
  417000  0.098946834  -0.56320098   0.24312884   -0.1717435 -0.0025592569 
  418000   0.09766581  -0.56408125   0.24590286   -0.1717701 -0.00086857338 
  419000  0.097050901  -0.56216561   0.24711282   -0.1695663  -0.00117759 
  420000  0.098569022  -0.56372036   0.24683382  -0.16912428 -0.0022516261 
  421000  0.095908332  -0.56354249   0.24681528  -0.17295351 -0.0012339235 
  422000  0.094123795  -0.56324078   0.24733915  -0.17480308 -0.0023136063 
  423000  0.094999871  -0.56347249   0.24652216  -0.17453849 -0.0017430332 
  424000  0.095951676  -0.56301875   0.24659631  -0.17258378 -0.0030182905 
  425000   0.10028203  -0.56224322   0.24445894  -0.16745409 -0.0012736931 
  426000  0.093180427  -0.56218757   0.25240663  -0.17009658 -0.0033937351 
  427000  0.095280776  -0.56308172   0.25182378    -0.168425 -0.0014455479 
  428000  0.098088512  -0.56295883   0.24740124  -0.16851564 -0.0031697347 
  429000  0.099818486  -0.56417613   0.24954872   -0.1649921 -0.0018342088 
  430000  0.095800163   -0.5645714   0.24675075  -0.17420911 -0.0017707946 
  431000  0.094072544  -0.56314151   0.24457705  -0.17754275 -0.0016313974 
  432000  0.096475823  -0.56331794   0.24951358  -0.16917996 -0.00081610624 
  433000   0.09613053  -0.56115975    0.2421218  -0.17493117 -0.001885871 
  434000  0.094201907  -0.56162456   0.24695772  -0.17345121 -0.0024321054 
  435000  0.098862555  -0.56319086   0.25218144  -0.16280713 -0.0032746261 
  436000  0.092035144  -0.56296141   0.24816517  -0.17682874 -0.002312722 
  437000  0.099583646  -0.56310308   0.24146839  -0.17235142 -0.001936832 
  438000    0.1017242  -0.56365188   0.24490598  -0.16625379 -0.0023881857 
  439000    0.1035664  -0.55867241   0.25181154  -0.15160716 -0.0011573299 
  440000  0.093494375  -0.55938642   0.24511944  -0.17411199 -0.0038044624 
  441000  0.098488428  -0.56388215    0.2510027    -0.165238 -0.0017642468 
  442000   0.10267832  -0.56355828   0.24354261  -0.16609326 -0.0013878622 
  443000  0.099668824  -0.56354607    0.2431734  -0.17096172 -0.0019233136 
  444000  0.098908166  -0.56208829   0.24172955  -0.17208807 -0.0017205587 
  445000  0.095672675  -0.56236379   0.24321979  -0.17572358 -0.0024181662 
  446000   0.09692399  -0.56296796   0.24296603  -0.17470569 -0.0012907028 
  447000   0.10028984  -0.56351468   0.24694554  -0.16622724 -0.0023240424 
  448000   0.10022611  -0.56336538   0.24723786  -0.16588117 -0.0025051963 
  449000   0.10148462  -0.56399612   0.24500229  -0.16686087 -0.0023844244 
  450000  0.097679454  -0.56346936   0.24752593  -0.16951469 -0.0018169486 
  451000   0.09294105  -0.56365571   0.25251696  -0.17181323 -0.0024485658 
  452000  0.099985741  -0.56313148   0.24561832  -0.16762712 -0.00069541258 
  453000  0.098935766  -0.56285023   0.24862052  -0.16591766 -0.0030635373 
  454000   0.10073177  -0.56323978   0.24802042  -0.16421497 -0.0018439735 
  455000  0.095833831  -0.56141255    0.2486713  -0.16907924 -0.0026943105 
  456000  0.097160455   -0.5629122     0.247203  -0.17005848  -0.00117821 
  457000   0.10224039  -0.56305633   0.24626098  -0.16352943 -0.0021345567 
  458000   0.09406686  -0.56197526   0.24472359  -0.17623848 -0.0028381278 
  459000  0.097058818  -0.56260327   0.24883954  -0.16826537 -0.00050622403 
  460000  0.098524201  -0.56320393   0.25122122  -0.16428763 -0.0024668697 
  461000   0.10119695  -0.56223133   0.24987706  -0.16065254  -0.00061998 
  462000   0.10103467  -0.56283863   0.24300791  -0.16837226 -0.0022357591 
  463000  0.099173152  -0.56236596   0.24612921  -0.16756885 -0.0023468316 
  464000  0.097845717  -0.56269795   0.24342681  -0.17259316 -0.0027199893 
  465000   0.09700866  -0.56239151   0.24134032  -0.17562802 -0.0024368962 
  466000   0.10482432  -0.56431139   0.24896358  -0.15820838 -0.0015779319 
  467000  0.096517512  -0.56276568   0.24295606  -0.17512272 -0.0019820209 
  468000  0.096477546   -0.5631413   0.24817552  -0.17033879 -0.0024169363 
  469000  0.097944206  -0.56346193   0.24445351   -0.1721828 -0.0017682241 
  470000  0.096776202   -0.5632279   0.25354142  -0.16461179 -0.0010374088 
  471000  0.097595534  -0.56377336   0.24564422  -0.17182621 -0.002177513 
  472000   0.10265628  -0.56244916   0.24621558  -0.16234422 -0.0028950921 
  473000   0.09567221  -0.56316786   0.25143676  -0.16831136 -0.0019849683 
  474000   0.10089299  -0.56361597   0.24818199  -0.16418792 -0.0025812259 
  475000  0.098139994  -0.56314515   0.24740694  -0.16861909 -0.0030381788 
  476000  0.098542613  -0.56384877    0.2492359  -0.16689019 -0.00099091312 
  477000   0.10151486  -0.56375105    0.2485876  -0.16298516 -0.0026293567 
  478000   0.10113306  -0.56236388   0.23970636  -0.17105156 -0.0019528467 
  479000  0.097560934  -0.56307451   0.24286657  -0.17395687 -0.0028541543 
  480000  0.093011525  -0.56365148   0.24627415  -0.17794616 -0.0013706085 
  481000  0.097747899  -0.56327151   0.24659948  -0.17014069 -0.0016742452 
  482000  0.096692893  -0.56205326   0.24093672  -0.17616673 -0.0028398866 
  483000  0.096357347  -0.56510579    0.2465673  -0.17409169 -0.0010475443 
  484000  0.096292948  -0.56310726   0.24601876  -0.17273823 -0.0019131993 
  485000  0.098122164  -0.56453619   0.24884343  -0.16860036 -0.0018382534 
  486000   0.10187364  -0.56218563    0.2428352   -0.1666343 -0.0016781678 
  487000  0.099594705  -0.56338183   0.24408796  -0.16999404 -0.00097626658 
  488000  0.094902721  -0.56467223   0.24625141  -0.17615461 -0.0016328544 
  489000   0.10327759   -0.5626157   0.25257928  -0.15521567 -0.0028959851 
  490000  0.095311407  -0.55894829   0.24430594  -0.17176349 -0.00037853318 
  491000  0.096371653  -0.56465589   0.24916354   -0.1710241 -0.0023875254 
  492000   0.10074317   -0.5634772   0.25013318  -0.16232254 -0.0021017936 
  493000   0.09357245  -0.56294929   0.24317781  -0.17949945 -0.0017195808 
  494000   0.09801692  -0.56243835   0.24706498  -0.16843875 -0.0023925135 
  495000  0.097150697  -0.56317815   0.24310695  -0.17443511 -0.0012171862 
  496000  0.096808971  -0.56124805   0.25145398  -0.16467025 -0.0018205627 
  497000   0.09840562  -0.56400336   0.24376995   -0.1727161 -0.0011387104 
  498000  0.098487738  -0.56223463   0.25315621    -0.161438 -0.00068901619 
  499000  0.096861633  -0.56350117   0.24397045  -0.17432796 -0.0021951588 
  500000  0.099001152  -0.56294377   0.25161029  -0.16292342 -0.0018969603 
  501000  0.099627859  -0.56267999   0.24292768  -0.17040277 -0.0024719415 
  502000  0.099158232  -0.56207213   0.24065313  -0.17277347 -0.0019566686 
  503000   0.10620171  -0.56310693   0.24538109  -0.15852162 -0.0010894554 
  504000  0.093413171  -0.56235568   0.24776527  -0.17455714 -0.0022507561 
  505000  0.097704261  -0.56311765   0.24469063   -0.1719611 -0.0022441295 
  506000   0.09930165  -0.56125705   0.24194568  -0.17045085 -0.0011063598 
  507000   0.10038825  -0.56375794   0.24838395  -0.16488457 -0.00068370174 
  508000  0.094789778  -0.56307714   0.24914893  -0.17183131 -0.0032368203 
  509000  0.098667401   -0.5619661    0.2443346  -0.16972175 -0.00073816437 
  510000  0.097794116  -0.56149364   0.24743756  -0.16745545 -0.0029357281 
  511000  0.095537853  -0.56297018   0.24547166   -0.1742802 -0.0030925345 
  512000  0.098403775  -0.56156359   0.24764128  -0.16640776 -0.0017673231 
  513000  0.096030829  -0.56335018   0.24119912  -0.17819373 -0.0017698054 
  514000  0.094967171  -0.56350841   0.24749155  -0.17365403 -0.0018832298 
  515000  0.095250064  -0.56163118   0.24823911  -0.17060517 -0.0033653017 
  516000  0.098212189  -0.56243978   0.24581495  -0.16939748 -0.0023464363 
  517000  0.097345708  -0.56308631   0.24731931  -0.16983857 -0.0021622972 
  518000  0.096116037  -0.56313899   0.24430399  -0.17474994 -0.0022459433 
  519000  0.098309296  -0.56415226   0.24402829  -0.17275105 -0.0017025917 
  520000  0.095917605  -0.56244698    0.2448037  -0.17385568 -0.0023494726 
  521000  0.098307982  -0.56151359   0.24818944   -0.1659532 -0.0034325841 
  522000   0.10087385  -0.56278265    0.2442247  -0.16734059 -0.0014098416 
  523000  0.096886501  -0.56325516   0.24400912    -0.174006  -0.00179107 
  524000   0.10182528   -0.5610562    0.2468173  -0.16159525 -0.0012926576 
  525000  0.099887234   -0.5635622   0.24391545  -0.16990838 -0.0010550177 
  526000  0.097550105   -0.5625669   0.24762024  -0.16871183 -0.0013622055 
  527000  0.095997506  -0.56351896   0.24703656  -0.17257502 -0.0020510723 
  528000  0.095398414  -0.56313073   0.24187561  -0.17824583 -0.0010748719 
  529000  0.096295655  -0.56174538   0.25019243  -0.16719863 -0.00046869369 
  530000   0.10046165   -0.5637288   0.24789561  -0.16523374 -0.0014392596 
  531000   0.10409813  -0.56422097   0.24532271  -0.16284747 -0.00049600656 
  532000  0.092582939  -0.56372555   0.24703963  -0.17789724 -0.0014211602 
  533000  0.098328232  -0.56510482   0.24476605  -0.17293746 -0.0022049271 
  534000  0.095065327  -0.56357233   0.25012985  -0.17093252  -0.00225662 
  535000  0.097644809  -0.56281188   0.24584727   -0.1705878 -0.0022079921 
  536000   0.10247324  -0.56093296   0.24806649  -0.15925149 -0.0020788681 
  537000  0.093969506  -0.56434043   0.24327787  -0.18019531 -0.0011531744 
  538000    0.1008381  -0.56399699   0.24723288  -0.16560033 -0.0019825211 
  539000  0.095139971   -0.5627706    0.2458444  -0.17430434 -0.003191433 
  540000  0.099822388  -0.56103238    0.2499467  -0.16144453 -0.0026499891 
  541000  0.093879264   -0.5624814   0.24685637  -0.17489306 -0.0022073866 
  542000  0.097227523   -0.5632032    0.2436987  -0.17375324 -0.0015184107 
  543000  0.096345926  -0.56376409   0.24005118  -0.17928323 -0.0020340854 
  544000  0.098487869  -0.56318524   0.24186371  -0.17368092 -0.0017644283 
  545000  0.096930179  -0.56429142   0.24594662  -0.17303928 -0.0017596648 
  546000  0.093641205   -0.5636868   0.24398409  -0.17932761 -0.00096782065 
  547000  0.096677729  -0.56227758    0.2555116   -0.1618389 -0.0028071521 
  548000  0.095198649   -0.5631709   0.24565106  -0.17481002 -0.0021898775 
  549000   0.10010909  -0.56276609   0.24183204  -0.17086311 -0.0026676662 
  550000  0.095937798  -0.56377949   0.24379284  -0.17616878  -0.00217168 
  551000  0.093642824  -0.56295951   0.24260846  -0.17997353 -0.0017505912 
  552000  0.098353267  -0.56292132   0.24353303  -0.17194945 -0.001780193 
  553000  0.095452981  -0.56377021   0.24221184  -0.17846728 -0.0012321548 
  554000  0.098229847  -0.56283376   0.24640254   -0.1691774 -0.0015151376 
  555000  0.098946546  -0.56370722    0.2469877  -0.16839132 -0.0019078316 
  556000     0.100433  -0.56281842   0.24556186  -0.16670006 -0.0015539224 
  557000   0.09907949  -0.56102595   0.24606572  -0.16643273 -0.0030078412 
  558000  0.096212026  -0.56263675   0.24893944  -0.16946836 -0.0026955487 
  559000  0.099497562  -0.56317856   0.24684183  -0.16718251 -0.0015162882 
  560000     0.099002  -0.56300812   0.24693526  -0.16766153 -0.0019621061 
  561000   0.10160033  -0.56361749   0.24539671  -0.16591436 -0.0019343922 
  562000  0.099637197   -0.5632065   0.24445442  -0.16938854 -0.0016718964 
  563000  0.096383896  -0.56366954   0.24600984  -0.17317311 -0.0021577511 
  564000   0.10082457  -0.56363706    0.2464665  -0.16602707 -0.0025314772 
  565000  0.099308165  -0.56295081    0.2479992  -0.16608132 -0.0021450449 
  566000  0.098695085  -0.56537014   0.24817532  -0.16924358 -0.0014778817 
  567000  0.094596495  -0.56575542   0.24680976  -0.17713851 -0.001896166 
  568000  0.091339386  -0.56191613   0.24722069  -0.17777093 -0.00051894909 
  569000  0.097339604  -0.56198956   0.24393041  -0.17213987 -0.0027368139 
  570000   0.10400442  -0.56390326   0.24530447  -0.16268846 -0.002775257 
  571000  0.096024148  -0.56368288   0.24635695  -0.17337862 -0.002288248 
  572000  0.094355963  -0.56017162   0.24733407  -0.17139097 -0.00089880763 
  573000   0.10544272  -0.56347189   0.24821348  -0.15719196 -0.0020358987 
  574000  0.096692834  -0.56290977   0.24705273  -0.17090733 -0.003031423 
  575000  0.098412598  -0.56494028   0.24666367  -0.17074883 -0.0015867414 
  576000  0.096015222  -0.56376937   0.24497619  -0.17485924 -0.0024662324 
  577000  0.097383036  -0.56415454   0.24981644  -0.16835372 -0.0012497653 
  578000   0.10097875  -0.56169366   0.24948273  -0.16083631 -0.0012959373 
  579000   0.10018621   -0.5631985   0.24614302  -0.16686892 -0.0018323445 
  580000  0.099851625  -0.56303949   0.24735933  -0.16599518 -0.0012850352 
  581000  0.094663103  -0.55964552   0.24475688  -0.17298163 -0.0034193618 
  582000   0.10283829   -0.5628574   0.24192207  -0.16677312 -0.0010967256 
  583000  0.094497497  -0.56479072   0.24552961  -0.17760237 -0.0015517428 
  584000   0.10063571  -0.56414371   0.24636165  -0.16692167 -0.0013194009 
  585000  0.097765415  -0.56421703   0.25150686  -0.16615257 -0.0017178537 
  586000   0.10221012   -0.5619653   0.24712435  -0.16162041 -0.0013149617 
  587000   0.10108597  -0.56222734   0.24837588   -0.1623161 -0.0030942862 
  588000    0.1006501  -0.56274345   0.24917052  -0.16269097 -0.00075530168 
  589000  0.097525494  -0.56411162   0.24700317  -0.17091051 -0.0022276787 
  590000   0.10110556  -0.56383751   0.24672191  -0.16555088 -0.0015667622 
  591000  0.094999229  -0.56245206   0.24393927  -0.17610191 -0.0027632875 
  592000  0.094502623  -0.56381051   0.24636272  -0.17578136 -0.0022587961 
  593000  0.094878973  -0.56205537   0.24314699  -0.17667777 -0.0030283999 
  594000  0.098268578  -0.56359668    0.2489481   -0.1673367 -0.0020482587 
  595000  0.094054228  -0.56312333   0.24548567  -0.17664341 -0.0024793195 
  596000  0.096621303  -0.56140829    0.2455748    -0.170991 -0.0010905224 
  597000   0.10142954  -0.56375196   0.24459959  -0.16710197 -0.0018929997 
  598000  0.095587468  -0.56360938   0.24358136  -0.17673533 -0.0012334722 
  599000  0.097128307  -0.56432728   0.24872919  -0.16999557 -0.0027017404 
  600000  0.097973457  -0.56211059   0.24638188  -0.16885923 -0.0014025197 
  601000   0.10082065  -0.56075011   0.24005734  -0.16955515 -0.0029813309 
  602000  0.097782805  -0.56400551   0.25702411  -0.16039774 -0.0010905677 
  603000   0.09621955  -0.56274508   0.24397576  -0.17452909 -0.0025396853 
  604000  0.098265446  -0.56360676   0.24841363  -0.16788594 -0.001965114 
  605000  0.095706019  -0.56391078   0.24238777  -0.17805259 -0.0022679719 
  606000   0.10235353  -0.56440196   0.24333798  -0.16762846 -0.0019623813 
  607000  0.098765105  -0.56283209   0.24923727  -0.16553861 -0.0029798608 
  608000  0.097574585  -0.56398208   0.24089266  -0.17681788 -0.0020450668 
  609000  0.098222216   -0.5633515   0.24323253  -0.17287659 -0.0027625538 
  610000   0.09419846  -0.56336425   0.24288354  -0.17927023 -0.0013281029 
  611000  0.097810852  -0.56427743   0.24959226  -0.16805945 -0.00098189131 
  612000  0.094274224  -0.56344099   0.24635936  -0.17575758 -0.0025196163 
  613000   0.09797047  -0.56321958   0.25021406  -0.16614053 -0.0031595602 
  614000   0.09735414  -0.56232603   0.24496112  -0.17142384 -0.0019745803 
  615000  0.097231391  -0.56417655   0.24607124  -0.17234825 -0.0026634995 
  616000  0.098049904  -0.56229679   0.24598307  -0.16932965 -0.0020563215 
  617000  0.099284221  -0.56318382   0.24255971  -0.17178971 -0.0018310239 
  618000  0.096758351  -0.56315585   0.24448555  -0.17362236 -0.0022868825 
  619000  0.098986163   -0.5631392   0.24447505  -0.17027656 -0.0007950174 
  620000  0.099434315  -0.56116916   0.25041444  -0.16169532 -0.0037159748 
  621000  0.095921573  -0.56340456   0.24508864  -0.17452237 -0.0012665596 
  622000  0.098980158  -0.56037584   0.24784783  -0.16414942 -0.00014689295 
  623000  0.098787851  -0.56502159   0.24542039  -0.17151089 -0.001719798 
  624000  0.090974152  -0.56369409   0.24238555  -0.18493154 -0.002627276 
  625000  0.098882529    -0.564847   0.24581975  -0.17079502 -0.0025091504 
  626000   0.10069089  -0.56474726   0.24496477  -0.16883939 -0.0010955401 
  627000    0.1001936  -0.56348342   0.24510302  -0.16818277 -0.0011412268 
  628000   0.10032134  -0.55983532   0.24759771   -0.1618485 0.00011478775 
  629000  0.097055416  -0.56257796   0.24655236  -0.17053235 -0.002734583 
  630000  0.098625518  -0.56323374   0.24679904  -0.16858774 -0.0020439452 
  631000   0.10201949  -0.56309535    0.2464826  -0.16367797 -0.00090109812 
  632000  0.095989468  -0.56163065   0.24472025  -0.17301508 -0.0023331689 
  633000  0.096515299  -0.56390582   0.24433803   -0.1748842 -0.0024100775 
  634000  0.099014408  -0.56310828   0.24456576  -0.17011258 -0.001283476 
  635000   0.09638152  -0.56326994   0.24579544  -0.17299147 -0.001664345 
  636000  0.095846661  -0.56329438   0.25164412  -0.16796901 -0.0019930815 
  637000  0.099011408  -0.56124586   0.24583217  -0.16698826 -0.0010950642 
  638000   0.09218883  -0.56230715   0.24607259  -0.17803668 -0.0027469673 
  639000  0.097339475  -0.56357855   0.24403523  -0.17362423 -0.0016619348 
  640000  0.095440278  -0.56207241    0.2456584  -0.17334196 -0.0031636411 
  641000  0.098048149  -0.56367914   0.24193022  -0.17476748 -0.001322611 
  642000  0.095734779  -0.56356886    0.2464277  -0.17362763 -0.002024339 
  643000  0.095330873  -0.56351419   0.25149365  -0.16911251 -0.0021306772 
  644000   0.10335113  -0.56292305   0.24969198  -0.15830008 -0.0029387738 
  645000  0.098814935   -0.5632569   0.24868129   -0.1664447 -0.0021645978 
  646000    0.1009271  -0.56409821   0.24655844  -0.16624256 -0.0017564234 
  647000  0.095152115  -0.56263759   0.24436451  -0.17563301 -0.0012527057 
  648000  0.094877175  -0.56277414   0.24542135  -0.17512487 -0.0016163944 
  649000  0.098823424  -0.56256657   0.24179727  -0.17262567 -0.00063685374 
  650000  0.093996221  -0.56186815   0.24080843  -0.18015243 -0.0029502518 
  651000   0.09429834  -0.55954882   0.24885059  -0.16933804 -0.00083019948 
  652000  0.094135023  -0.56163001    0.2423689  -0.17814573 -0.0028043881 
  653000   0.10271649  -0.56388295   0.24458014  -0.16532319 -0.0019766698 
  654000   0.10018316  -0.56605556   0.24646312  -0.16941045 -0.00085322768 
  655000  0.095711409  -0.56323974   0.24786266  -0.17189859 -0.0028383261 
  656000  0.098845374  -0.56283833   0.24828835  -0.16637344 -0.0010475548 
  657000   0.10263347  -0.56306712   0.24594867  -0.16326327 3.7894086e-05 
  658000  0.096897157  -0.56362079   0.24913802  -0.16922676 -0.003310238 
  659000  0.093837062   -0.5634086   0.24907316  -0.17366673 -0.0021269936 
  660000  0.099434012  -0.56155203   0.24501573  -0.16747736 -0.0019249821 
  661000   0.10159164  -0.56264482   0.24841279  -0.16193864 -0.0012077344 
  662000   0.10239869  -0.56389703   0.24739688  -0.16299692 -0.0018318209 
  663000  0.099034511  -0.56332518   0.25160652  -0.16325859 -0.001847302 
  664000  0.096193663  -0.55980205   0.24754303  -0.16805759 -0.0027957461 
  665000  0.097073208  -0.56203892   0.24925006  -0.16726893 -0.00055381377 
  666000  0.098168946  -0.56334172   0.24319082  -0.17298838 -0.0018560456 
  667000  0.094947974  -0.56331244   0.24337929  -0.17759911 -0.0028382141 
  668000  0.092926458  -0.56370008    0.2469247  -0.17747173 -0.0025363591 
  669000  0.090276056  -0.56312392   0.24781952   -0.1799739 -0.0017535379 
  670000  0.099736653  -0.56352033    0.2496791  -0.16432859 -0.0020706042 
  671000   0.10086252  -0.56215915   0.24854401  -0.16241475 -0.002709291 
  672000  0.099959939  -0.56462178   0.24586184  -0.16891259 -0.0013293691 
  673000    0.1019193  -0.56195791   0.24591883   -0.1632545 -0.0016899436 
  674000  0.096552025  -0.56374896   0.25336232    -0.165648 -0.0013784073 
  675000    0.0953157  -0.56348318   0.24316356  -0.17743433 -0.0021131629 
  676000  0.098317124  -0.56352252   0.24941836  -0.16671951 -0.0016598097 
  677000  0.098853266  -0.56305105   0.24167113  -0.17319154 -0.001424285 
  678000  0.099522468  -0.56379932   0.24401027  -0.17059749 -0.0015527032 
  679000  0.093341429  -0.56403263    0.2481975  -0.17590942 -0.0016022746 
  680000  0.096426631  -0.55957194   0.24597941  -0.16904187 -0.0021285592 
  681000  0.096013323  -0.56323924   0.24907587  -0.17023229 -0.0020769367 
  682000  0.095215073  -0.56036227   0.24854516  -0.16908267 -0.0019024446 
  683000  0.096531848  -0.56163093    0.2482759  -0.16864664 -0.002959951 
  684000  0.093905491  -0.56338429   0.24395523  -0.17865778 -0.0023782207 
  685000   0.10056151  -0.56260439   0.24300122  -0.16885403 -0.00086131394 
  686000  0.094243165  -0.56218939   0.24635249  -0.17455942 -0.0024223432 
  687000   0.09449803  -0.56278003   0.24573867  -0.17538182 -0.0023606371 
  688000  0.097212412  -0.56196664   0.25245088  -0.16378716 -0.0018008619 
  689000   0.10806158  -0.56297117   0.24575283  -0.15522603 -0.001569077 
  690000  0.092813829  -0.56274078   0.24849516  -0.17511081 -0.0022077491 
  691000    0.1010423  -0.56215202   0.25034973   -0.1603324 -0.0033815996 
  692000   0.09587606  -0.56329877   0.24665053  -0.17292293 -0.0011849918 
  693000  0.094626094  -0.56042984   0.24400977  -0.17456854 -0.0031908783 
  694000   0.09443112   -0.5637724   0.24557929  -0.17663386 -0.0020357853 
  695000  0.095264396  -0.56275708   0.24769533  -0.17225336 -0.0027426221 
  696000   0.10401754  -0.56396793   0.25265444   -0.1553835 -0.0018846524 
  697000  0.099834105  -0.56265704   0.24396233  -0.16903599 -0.0016385885 
  698000  0.095553482  -0.56418704    0.2488237  -0.17212159 -0.0023707178 
  699000   0.09540538  -0.56256169   0.24912613  -0.17041583 -0.0011345469 
  700000  0.097541232  -0.56390458   0.24652244  -0.17116061 -0.0024051625 
  701000   0.10273152  -0.56505034   0.24985041  -0.16119777 -0.0017995002 
  702000  0.096692996  -0.56320343   0.24029711  -0.17795635 -0.00071727954 
  703000  0.099484367  -0.56348696   0.25312342   -0.1612291 -0.0016007254 
  704000  0.096421024  -0.56334436   0.24732579  -0.17147631 -0.0020495609 
  705000  0.095383172  -0.56298243   0.25219138  -0.16780461 -0.0023705622 
  706000   0.10348835  -0.56215015   0.24482562  -0.16218783 -0.0013193423 
  707000   0.10307842  -0.56285787   0.24821144  -0.16012425 -0.00071484262 
  708000  0.097419126  -0.56401994   0.24357923  -0.17440223 -0.0015436856 
  709000  0.096916426  -0.56287771   0.24494998  -0.17264284 -0.0017689409 
  710000  0.096935203  -0.56533846   0.25151663  -0.16850878 -0.0022557312 
  711000   0.10002926  -0.56324937   0.24798045  -0.16531764 -0.0025576858 
  712000  0.098743029  -0.56405292   0.24991306  -0.16611675 -0.0017771112 
  713000  0.098594465  -0.56372823   0.24803702  -0.16789081 -0.0017124799 
  714000  0.095802555  -0.56333272    0.2443281  -0.17538949 -0.0009464052 
  715000  0.098670839  -0.56351226   0.24637763  -0.16921974 -0.0022541517 
  716000   0.10647193  -0.56155648   0.24189469  -0.16005249 -0.00071179671 
  717000  0.098655213  -0.56332774   0.24974676  -0.16568951 -0.0025144593 
  718000  0.098393255  -0.56323378   0.24379659  -0.17193841 -0.0023561919 
  719000   0.09956182   -0.5643202   0.24415507  -0.17091459 -0.0015844449 
  720000  0.098553244  -0.56383442   0.24962388  -0.16647192 -0.0015569001 
  721000  0.097630332  -0.56316134   0.24352523  -0.17328101 -0.0016207262 
  722000  0.096845773  -0.56293974   0.24875286  -0.16900789 -0.0016495709 
  723000    0.1016861  -0.56261775   0.24540099  -0.16478176 -0.001525603 
  724000  0.098458259  -0.56176033   0.24394937  -0.17021474 0.00012790084 
  725000  0.093553148  -0.56324979   0.24213887  -0.18086783 -0.0027508251 
  726000  0.097853325  -0.56396442   0.24369293  -0.17358211 -0.0019365575 
  727000  0.097870967  -0.56208207   0.24618894  -0.16917731 -0.0017555985 
  728000    0.0970961  -0.56164347   0.24574589  -0.17034333 -0.0030912167 
  729000  0.095461163   -0.5642585   0.24760274   -0.1735524 -0.0031941084 
  730000  0.094617522  -0.56432978   0.24553167  -0.17695943 -0.0018267134 
  731000  0.097625542  -0.56123125    0.2425842  -0.17229913 -0.0015889784 
  732000  0.095639417  -0.56310931   0.24185592  -0.17788282 -0.0023473573 
  733000  0.093595277  -0.56305612    0.2455352  -0.17721467 -0.0025924433 
  734000   0.10023181  -0.56102398   0.24268636  -0.16808272 -0.00075825713 
  735000   0.10425632  -0.56257029    0.2550619  -0.15122044 -0.002583771 
  736000  0.096044316  -0.56341391   0.24588176   -0.1735546 -0.0011713438 
  737000   0.10456416  -0.56320218   0.24397625  -0.16247651 -0.0013603111 
  738000  0.094619621  -0.56209215    0.2457518  -0.17449853 -0.0029693855 
  739000  0.096370585  -0.56315774   0.24464127  -0.17404982 -0.0010515132 
  740000  0.095248162  -0.56233716   0.24425554  -0.17529756 -0.0022693512 
  741000   0.10608465  -0.56214621   0.24807923  -0.15503824 -0.0017668465 
  742000   0.09760251  -0.56327432   0.25064527  -0.16631566 -0.0021409909 
  743000  0.094383423  -0.56295683   0.25182195  -0.16964714 -0.0019290416 
  744000   0.10025255  -0.56270337   0.24458042  -0.16783694 -0.0014383038 
  745000  0.098721177  -0.56303037   0.25103399  -0.16400602 -0.0013605751 
  746000  0.096024915  -0.56317483   0.24764209  -0.17158429 -0.0021609624 
  747000  0.098033453  -0.56361983   0.24676799  -0.16989243 -0.0024431144 
  748000  0.099668388  -0.56108927   0.24813186  -0.16354711 -0.0031513386 
  749000  0.096265857  -0.56332146   0.24346321   -0.1755486 -0.0017442142 
  750000  0.099597587  -0.56285591   0.24777127  -0.16578048 -0.0032524274 
  751000  0.095840499  -0.56478947   0.24577051  -0.17534695 -0.0019689845 
  752000  0.098897948  -0.56379674   0.24427287  -0.17126852 -0.0013407869 
  753000   0.10312733  -0.56258974   0.24765307  -0.16034116 -0.0023263081 
  754000   0.10050564  -0.56375237    0.2457498  -0.16733717 -0.0018805476 
  755000   0.10352017  -0.56311084   0.24931513  -0.15861131 -0.0022362929 
  756000  0.098542153    -0.562942    0.2464256  -0.16879441 -0.0014364908 
  757000  0.096354062  -0.56388757   0.24820992  -0.17123577 -0.0012612861 
  758000   0.10005637   -0.5623493   0.24777903  -0.16457836 -0.002441377 
  759000   0.10736039  -0.56336142   0.24781357  -0.15460667 -0.0019616473 
  760000  0.099030211   -0.5635433   0.24905132  -0.16603836 -0.00070490134 
  761000  0.096964469  -0.56254197   0.24603503  -0.17115002 -0.0018664935 
  762000    0.1010891  -0.56131768   0.24517391  -0.16460373 -0.00099996224 
  763000   0.10291452  -0.56473935   0.24550361  -0.16495925 -0.00097338081 
  764000  0.096646654  -0.56329701   0.24820519  -0.17021132 -0.0011979283 
  765000  0.098223838  -0.56716138    0.2424694  -0.17744717 -0.0015977009 
  766000   0.10267291  -0.56337448   0.24662607   -0.1628341 -0.0020195159 
  767000   0.10417023  -0.56434991   0.24901186  -0.15917916 -0.0018790759 
  768000  0.096668825  -0.56007399   0.25330454  -0.16185573 -0.0026301292 
  769000  0.097255819  -0.56331797   0.24225348  -0.17527082 -0.002326068 
  770000  0.097834229   -0.5636185   0.24784736  -0.16911038 -0.0013190696 
  771000  0.096595965   -0.5625306   0.24237761  -0.17534848 -0.0032045263 
  772000  0.099512517  -0.56726704   0.24350763  -0.17458278 -0.0021177377 
  773000  0.097254437  -0.56354268   0.25002329  -0.16772778 -0.00057634305 
  774000   0.10295216  -0.56258838   0.25241608  -0.15583937 -0.0039758648 
  775000  0.098278714  -0.56302249    0.2455878  -0.17010761 -0.0016724304 
  776000  0.096883582  -0.56417278   0.24971577  -0.16922135 -0.0016198945 
  777000   0.10228748  -0.56434033   0.24566896  -0.16533487 -0.0020954302 
  778000  0.099282759  -0.56303988   0.24160717   -0.1726005 -0.0022750106 
  779000   0.10246602  -0.56230457   0.25202966  -0.15667075 -0.0010471997 
  780000  0.097783821  -0.56393198   0.24619333  -0.17115346 -0.002591901 
  781000  0.096391692  -0.56477285   0.24758238  -0.17269218 -0.001572577 
  782000  0.098885529  -0.56382994   0.24897084  -0.16662236 -0.0020086551 
  783000     0.101243  -0.56218646   0.24659347  -0.16382223 -0.0022896915 
  784000  0.097646462  -0.56198676   0.24649959  -0.16910789 -0.0014619163 
  785000  0.097172941  -0.56443559   0.24200298  -0.17676317 -0.0025666785 
  786000   0.10123965  -0.56309863   0.24493349  -0.16639941 -0.0024074305 
  787000   0.10223351  -0.56337673   0.24578209  -0.16433904 -0.0012724764 
  788000  0.098144306  -0.56260587   0.25001884  -0.16546145 -0.0032145028 
  789000  0.094343022  -0.56361708    0.2433896  -0.17880031 -0.0019520004 
  790000   0.10047782  -0.56391547   0.24669233  -0.16659944 -0.0026140916 
  791000   0.10441649  -0.56372657   0.24324777  -0.16395075 -0.0018848877 
  792000  0.097559561  -0.56054602   0.24166853  -0.17262848 -0.00070522965 
  793000   0.10019159  -0.56458084   0.24760365  -0.16678257 -0.0014468523 
  794000  0.098815588  -0.56404129   0.25139275  -0.16451666 -0.0026310269 
  795000  0.094997199  -0.56191186   0.24790209  -0.17160193 -0.0020529468 
  796000  0.096316779  -0.56355691    0.2484731  -0.17069783 -0.0020887486 
  797000   0.10124069  -0.56322998   0.24613153  -0.16533115 -0.0017094401 
  798000  0.094963849  -0.56170837   0.24667708  -0.17267345 -0.00096615296 
  799000   0.10258818  -0.56275749   0.24489009  -0.16408011 -0.002507194 
  800000  0.095889269  -0.56265552   0.24599056  -0.17291984 -0.0006548511 
  801000   0.10220739  -0.56191548   0.24495466  -0.16374436 -0.0030348457 
  802000  0.095830373  -0.56373394   0.24355348  -0.17652362 -0.0011356605 
  803000  0.095937898  -0.56327013    0.2451409  -0.17431122 -0.001000418 
  804000  0.096643913  -0.56547278   0.24764947  -0.17294693 -0.0026110722 
  805000  0.093880668  -0.56239435   0.24608113  -0.17557914 -0.0029307048 
  806000   0.10095288   -0.5635386   0.24659304  -0.16560971 -0.0018791937 
  807000  0.097597185  -0.56258293   0.25269278  -0.16358475 -0.0024788133 
  808000  0.093992221  -0.56434308   0.24541989  -0.17802189 -0.001700881 
  809000  0.099387483  -0.56043208   0.24603208   -0.1654108 -0.0037606251 
  810000   0.10553338  -0.56131381    0.2443087  -0.15880275 -0.0017732362 
  811000   0.09846655  -0.56087964   0.25146355  -0.16180743 -0.0004084304 
  812000  0.097192638  -0.56351887   0.24607755  -0.17174235 -0.0015792579 
  813000  0.097764215    -0.564105   0.24448149  -0.17306771 -0.0007421998 
  814000  0.094605556  -0.56235664   0.24643626  -0.17409964 -0.0021153698 
  815000   0.10262585   -0.5633656   0.24400049  -0.16552136 -0.0020708792 
  816000   0.10096314  -0.56301087   0.24505584  -0.16660381 -0.00073188942 
  817000   0.09694852  -0.56433093   0.25126854  -0.16772938 -0.0028099115 
  818000  0.095952428  -0.56392709   0.24990353  -0.17018376 -0.0020107801 
  819000  0.094512751  -0.56306418   0.24558839  -0.17579418 -0.0024936315 
  820000  0.099544929  -0.56360265   0.24748928  -0.16688815 -0.00097776798 
  821000  0.097498103    -0.563535   0.24865435  -0.16872377 -0.0021509554 
  822000  0.099331851  -0.56218647   0.24286037  -0.17042029 -0.0013405192 
  823000  0.097607502  -0.56467316   0.24504678   -0.1733055 -0.0027105809 
  824000  0.095922423  -0.56263861   0.24182542  -0.17701838 -0.0018303676 
  825000   0.10304466  -0.56329532   0.24593261  -0.16289112 -0.00096925256 
  826000   0.10155704  -0.56352365   0.24515297  -0.16612916 -0.0013432405 
  827000  0.098337729  -0.56420881   0.24777514  -0.16901814 -0.0031346218 
  828000   0.09432329  -0.56280681   0.24666915  -0.17474006 -0.0024340076 
  829000  0.097531633  -0.56302345   0.25268494  -0.16413137 -0.0017984337 
  830000   0.10053902  -0.56152097   0.24789848  -0.16290705 -0.0028070907 
  831000  0.096151562  -0.56271833   0.24621479  -0.17236523 -0.0013782903 
  832000  0.099268536  -0.56275157   0.24649836  -0.16744232 -0.0019099826 
  833000   0.10105338  -0.56271642   0.24508928  -0.16614064 -0.0024660963 
  834000  0.093562677  -0.56407036   0.24966702  -0.17414596 -0.0025610897 
  835000   0.10018842  -0.56249139   0.24614238  -0.16615915 -0.0025630709 
  836000  0.093782262  -0.56276115   0.24601646  -0.17615813 -0.0026187615 
  837000   0.10462956  -0.56324014   0.25156198   -0.1548307 -0.0021483891 
  838000   0.10092402  -0.56306358   0.24085603  -0.17091497 -0.0020451725 
  839000  0.099582867  -0.56226782   0.25124467  -0.16174105 -0.0020493475 
  840000  0.097199484  -0.56177706    0.2503699  -0.16569793 -0.0016187949 
  841000  0.099209371  -0.56438751   0.25129382   -0.1643715 -0.0017481752 
  842000  0.096224466  -0.56349205   0.24798607  -0.17125838 -0.0020047439 
  843000  0.096135028  -0.56225188   0.24547213  -0.17266622 -0.00060634376 
  844000  0.097426796  -0.56285611   0.24817521  -0.16863091 -0.0027880154 
  845000  0.094957545  -0.56314513    0.2499919  -0.17080483 -0.0029879729 
  846000  0.099225145   -0.5628293   0.24328836   -0.1707951 -0.0019168972 
  847000  0.099546299  -0.56302223   0.24511576   -0.1686792 -0.003156363 
  848000   0.10068718  -0.56388008   0.24493435  -0.16800819 -0.0028279536 
  849000  0.097212311  -0.56384798   0.24624249  -0.17187703 -0.00081656808 
  850000   0.10552195  -0.56370379   0.25257889  -0.15293967 -0.0025124862 
  851000  0.099017748  -0.56370389   0.25122843  -0.16404052 -0.0024892196 
  852000  0.094531502  -0.56152537   0.23928785   -0.1805278 -0.00070303417 
  853000  0.095875821  -0.56368821   0.24783151  -0.17213174 -0.0021103175 
  854000  0.095344155  -0.56352656   0.24547644  -0.17512217 -0.0027056449 
  855000  0.094907823  -0.56277017   0.24819187  -0.17230445 -0.0012147846 
  856000  0.099246678  -0.56263035   0.24940772  -0.16444451 -0.0027905391 
  857000  0.099587786  -0.56499799   0.24831559  -0.16739293 -0.0015666171 
  858000  0.099112553  -0.56344781   0.24763672  -0.16723403 -0.0012381428 
  859000  0.097632469    -0.563116   0.24346984  -0.17328786 -0.0027163653 
  860000  0.095112632  -0.56427094   0.24989583  -0.17179424 -0.0022158076 
  861000  0.096532131  -0.56409706   0.24991317  -0.16947507 -0.0036747987 
  862000   0.10273461  -0.56332173   0.24107597  -0.16823897 -0.0011322133 
  863000    0.1019193  -0.56480065   0.24822525  -0.16379081 -0.001868287 
  864000  0.099252274  -0.56507225   0.24375719  -0.17252855 -0.0014526546 
  865000   0.10304428  -0.56366277   0.25005119  -0.15914058 -0.0011768037 
  866000   0.10533127  -0.56087368    0.2419657   -0.1610086 -0.0024818245 
  867000  0.096508225  -0.56223987   0.24403518  -0.17353171 -0.0021347489 
  868000   0.10220813  -0.56243029   0.24347261  -0.16574012 -0.0019537088 
  869000   0.10112687  -0.56429898   0.24804556  -0.16465675 -0.0014099491 
  870000  0.096364039  -0.56212772   0.24212968  -0.17554121 -0.00066151582 
  871000    0.1009917   -0.5632232   0.24244236   -0.1693868 -0.0018266513 
  872000  0.095976983  -0.56091011   0.24805045  -0.16898305 -0.0010490652 
  873000  0.097598954  -0.56269144   0.25054518  -0.16583821 -0.0018114254 
  874000  0.098681663   -0.5637871    0.2465781  -0.16927787 -0.002313277 
  875000   0.10509938  -0.56197876    0.2437436   -0.1606834 -0.0017620426 
  876000   0.10576052  -0.56317525    0.2445953  -0.16003709 -0.0027991952 
  877000   0.09973588  -0.56250567   0.24520551  -0.16778869 -0.0023826349 
  878000  0.096705605  -0.56394266    0.2445888    -0.174385 -0.0004423914 
  879000  0.099481793  -0.56369246   0.24489372  -0.16966816 -0.0020087738 
  880000  0.097092459  -0.56335145   0.24804031  -0.16976235 -0.00088916262 
  881000  0.097694781  -0.56460242   0.24184358  -0.17630713 -0.0018603518 
  882000  0.098140635   -0.5614092   0.24222294  -0.17206618 -0.00010096215 
  883000  0.092194467  -0.56376962   0.24403806  -0.18152522 -0.0016659339 
  884000  0.099004897   -0.5636932   0.24927589  -0.16600163 -0.0012977011 
  885000  0.099299485  -0.56341729   0.24933671  -0.16522329 -0.0022518959 
  886000  0.096994856  -0.56390377   0.24398342  -0.17451788 -0.0016486563 
  887000   0.10120363  -0.56310528   0.24103714  -0.17035639 -0.0015139406 
  888000  0.099656796  -0.56481081   0.24235625  -0.17306164 -0.0018331278 
  889000  0.098949698   -0.5634265   0.24514146  -0.16995211 -0.0016595295 
  890000   0.10346684  -0.56130404   0.24170206  -0.16449753 -0.0021888008 
  891000  0.095940794  -0.56365171   0.24684215   -0.1729872 -0.0015727055 
  892000  0.091453191  -0.56242667   0.24524121  -0.18009035 -0.00091567927 
  893000  0.098261543  -0.56208401   0.25296803  -0.16181464 -0.0025878365 
  894000  0.099105009  -0.56245413   0.24414635  -0.16974203 -0.0018862043 
  895000  0.095711186  -0.56252124   0.24702708  -0.17201601 -0.0026038853 
  896000   0.09986846  -0.56329515   0.24624343   -0.1673415 -0.0011632988 
  897000   0.10113175  -0.56341699   0.24746925  -0.16434375 -0.0025892421 
  898000  0.096167173  -0.56228534   0.24183771  -0.17628592 -0.0011850034 
  899000  0.095373423  -0.56094617   0.24424436  -0.17372999 -0.0022837141 
  900000   0.10120484  -0.56022527   0.24490595  -0.16360576 -0.0015067873 
  901000   0.10008918  -0.56375304   0.24579552  -0.16791643 -0.0016475725 
  902000  0.099959584  -0.56239652   0.25282208  -0.15972762 -0.0033510778 
  903000  0.095681907  -0.56346779   0.24444524  -0.17558828 -0.0030605505 
  904000   0.10060967  -0.56318459   0.24997719  -0.16238605 -0.0026050225 
  905000  0.097909363  -0.56326875   0.24554446   -0.1709509 -0.0013764923 
  906000    0.1009148  -0.56389161   0.25314343  -0.15946942 -0.002363626 
  907000   0.10002434  -0.56206537   0.24348955  -0.16863191 -0.0023399655 
  908000  0.096764165  -0.56372138   0.24699202  -0.17167271 -0.0019636077 
  909000   0.10366179  -0.56192386   0.24702976   -0.1594974 -0.0018002305 
  910000   0.10149583  -0.56312362   0.24445599  -0.16651786 -0.001704954 
  911000  0.098152532  -0.56433495   0.24598276  -0.17121427 -0.0017244181 
  912000   0.10324446    -0.563477   0.24373753  -0.16496838 -0.0023269713 
  913000   0.10220496  -0.56414365   0.24959248  -0.16133835 -0.0018123181 
  914000  0.096373766  -0.56208266   0.24628725  -0.17132399 -0.0029485861 
  915000  0.094917728  -0.56334607   0.24464525  -0.17641211 -0.0017186812 
  916000    0.0931842  -0.56317388   0.24943498  -0.17404888 -0.0025004529 
  917000  0.098892033  -0.56137639   0.25061813  -0.16251178 -0.0026110321 
  918000  0.099361667  -0.56304761   0.24981214  -0.16428497 -0.0026463679 
  919000  0.094858996  -0.56343949   0.24676346  -0.17447536 -0.0021929931 
  920000   0.10207947  -0.56285427   0.24525377  -0.16457581 -0.002101458 
  921000  0.099820241  -0.56379371   0.24601842  -0.16813736 -0.0021026804 
  922000  0.096630288  -0.56201462   0.24334393  -0.17381473 -0.0020799844 
  923000   0.10202847  -0.56238843   0.24247836  -0.16696183 -0.0010799297 
  924000  0.098054756  -0.56313675   0.24121811   -0.1749273 -0.0014916842 
  925000  0.099602558  -0.56463834    0.2445949  -0.17073183 -0.0020601331 
  926000  0.097820974  -0.56294625    0.2441135  -0.17219186 -0.0019450383 
  927000   0.10102061   -0.5632898   0.24571738  -0.16613504 -0.0027953531 
  928000  0.096555149  -0.55815363   0.24311071   -0.1702996 -0.00059950648 
  929000   0.09534012  -0.56447509   0.24353394  -0.17801925 -0.0026512456 
  930000  0.093405405  -0.56314694   0.24437814  -0.17874718 -0.0015460744 
  931000   0.10047988  -0.56393571   0.24324371  -0.17006522 -0.0011668943 
  932000   0.10145372  -0.56450912   0.24489699   -0.1675255 -0.0016607148 
  933000    0.1007057  -0.56392145   0.24236468  -0.17059148 -0.0018586228 
  934000  0.099538596  -0.56493018   0.24386339  -0.17185106 -0.0019096274 
  935000  0.095764296  -0.56391349   0.24657891   -0.1737768 -0.0025382886 
  936000  0.095640166  -0.56325412   0.24537464  -0.17450779 -0.0022607957 
  937000  0.092355389  -0.56255365   0.24426578   -0.1798403 -0.0021083599 
  938000  0.096383699   -0.5654038   0.24954711  -0.17137039 -0.0020601248 
  939000  0.095097662  -0.56341203   0.24897375  -0.17187984 -0.002751702 
  940000  0.095078071  -0.56197506   0.24872296  -0.17072303 -0.0010148986 
  941000  0.098300615  -0.55983745   0.24552248  -0.16695507 -0.0035859237 
  942000  0.096590336  -0.56325521   0.24598269  -0.17247645 -0.0014261074 
  943000  0.096279878  -0.56318771    0.2472398  -0.17161724 -0.0023063409 
  944000  0.095707628  -0.56290561   0.24369707  -0.17573572 -0.001719852 
  945000   0.10071279  -0.56458842   0.24540034  -0.16821214 -0.00075767772 
  946000  0.099662141  -0.56371027   0.25099486  -0.16331448 -0.0030115207 
  947000  0.094605558  -0.56537057   0.24737461  -0.17617523 -0.0018846285 
  948000   0.09607709  -0.56541137   0.24348849  -0.17789621 -0.0012330522 
  949000  0.098025118  -0.56412758   0.24702275  -0.17015793 -0.0017824904 
  950000  0.099099188  -0.56186356   0.24594618  -0.16736036 -0.0010941603 
  951000  0.096442426  -0.56333706   0.24573215  -0.17303056 -0.0021578387 
  952000    0.0932988  -0.56300233   0.24498875  -0.17815177 -0.0032443081 
  953000  0.091216359  -0.56225513   0.24663065  -0.17888441 -0.00078535141 
  954000   0.09865162  -0.56325069   0.24323388  -0.17213072 -0.0019204174 
  955000   0.09909762   -0.5632939   0.24540133   -0.1693379 -0.002717833 
  956000  0.096470617  -0.56346463   0.24580722  -0.17304081 -0.0013333378 
  957000  0.093858895  -0.56282626   0.24412346  -0.17800137 -0.0028984431 
  958000  0.098772037  -0.55962945   0.24404515   -0.1675177 -0.0028631245 
  959000  0.095538133  -0.56260329   0.24345658  -0.17592797 -0.0026332036 
  960000  0.098388349  -0.56220409   0.24616904  -0.16854362 -0.0010704677 
  961000  0.098938894  -0.56347605   0.24837491  -0.16678441 -0.0022753654 
  962000  0.097704577  -0.56278899   0.24511807  -0.17120453 -0.0026781354 
  963000  0.095718948  -0.56142086   0.24176487   -0.1761662 -0.0025400659 
  964000  0.096767578   -0.5628041   0.24443331  -0.17330902 -0.0024446829 
  965000   0.10104975  -0.55944341   0.24515467  -0.16280768 0.00035250355 
  966000  0.098310218  -0.56278044   0.24465219  -0.17075394 -0.001846925 
  967000   0.10207301  -0.56230889   0.24093769   -0.1683562 -0.0014364067 
  968000   0.10294387  -0.56538728   0.24408336  -0.16698345 -0.0013820244 
  969000   0.10078592  -0.56278874   0.24524815  -0.16645504 -0.0011378691 
  970000  0.095722266  -0.56354357   0.24589714  -0.17415166 -0.0019500682 
  971000   0.10100953  -0.56409339   0.24591151  -0.16676112 -0.002188481 
  972000  0.094743603  -0.56145081   0.25140857  -0.16801457 -0.0023028768 
  973000  0.098748671  -0.56361987   0.24124909  -0.17433921 -0.001070242 
  974000  0.092669593  -0.56386599   0.24506097  -0.17988643 -0.0017439794 
  975000  0.097073278  -0.56353811   0.24894766  -0.16907041 -0.0025840185 
  976000  0.097030281  -0.56546984   0.24642196   -0.1735923 -0.0016144476 
  977000  0.098762587  -0.56395276   0.24334885  -0.17255147 -0.0013827625 
  978000   0.10063235  -0.56251025   0.24091266  -0.17074224 -0.001689502 
  979000  0.092293434  -0.56330357   0.24307584  -0.18187303 -0.0013023747 
  980000   0.10218669  -0.56381138   0.24402979  -0.16659618 -0.0015825549 
  981000   0.10361719  -0.56354584    0.2465764   -0.1616396 -0.00018731774 
  982000  0.098741418  -0.56307567   0.24633332  -0.16872165 -0.0022300954 
  983000  0.098758473  -0.56339916    0.2454016  -0.16995129 -0.0012272469 
  984000   0.10157786  -0.56552168   0.24550449  -0.16774445 -0.001172439 
  985000   0.10020276  -0.56190016   0.24769598  -0.16399282 -0.0011667942 
  986000   0.10157449  -0.56310809   0.25039228  -0.16044813 -0.0025809479 
  987000  0.093737853  -0.56255002   0.25235199  -0.16967804 -0.0012738504 
  988000   0.10083523  -0.56369091   0.24372261  -0.16880881 -0.0019830059 
  989000  0.098649365  -0.56000473   0.24397032  -0.16815171 -0.0031659059 
  990000   0.10008744  -0.56432823   0.24305669  -0.17123305 -0.0017465824 
  991000  0.096458971  -0.56100312   0.24565715  -0.17074683 -0.0030919242 
  992000    0.1057701  -0.56334361   0.25110015  -0.15368626 -0.002866372 
  993000  0.099266144  -0.56233334   0.25244323  -0.16108281 -0.0027278578 
  994000  0.095674515  -0.56388679    0.2451718  -0.17529181 -0.002087576 
  995000   0.10196429  -0.56367001   0.24386331  -0.16695467 -0.0019229598 
  996000  0.096550149  -0.56350336    0.2500311  -0.16873644 -0.0025598514 
  997000  0.096060809   -0.5641576   0.24606448  -0.17409085 -0.0016556633 
  998000  0.096458802  -0.56258852   0.24209691  -0.17589271 -0.0013404028 
  999000  0.097698261  -0.56356588    0.2461959  -0.17091305 -0.0012782296 
 1000000  0.097046296   -0.5637903   0.24302571    -0.175285 -0.00058941408 
Loop time of 78.264 on 1 procs for 1000000 steps with 1620 atoms

Performance: 2207911.006 tau/day, 12777.263 timesteps/s
99.8% CPU use with 1 MPI tasks x no OpenMP threads

MPI task timing breakdown:
Section |  min time  |  avg time  |  max time  |%varavg| %total
---------------------------------------------------------------
Pair    | 6.6588     | 6.6588     | 6.6588     |   0.0 |  8.51
Bond    | 0.54015    | 0.54015    | 0.54015    |   0.0 |  0.69
Neigh   | 20.268     | 20.268     | 20.268     |   0.0 | 25.90
Comm    | 4.5088     | 4.5088     | 4.5088     |   0.0 |  5.76
Output  | 0.10323    | 0.10323    | 0.10323    |   0.0 |  0.13
Modify  | 41.123     | 41.123     | 41.123     |   0.0 | 52.54
Other   |            | 5.062      |            |       |  6.47

Nlocal:    1620 ave 1620 max 1620 min
Histogram: 1 0 0 0 0 0 0 0 0 0
Nghost:    545 ave 545 max 545 min
Histogram: 1 0 0 0 0 0 0 0 0 0
Neighs:    29 ave 29 max 29 min
Histogram: 1 0 0 0 0 0 0 0 0 0

Total # of neighbors = 29
Ave neighs/atom = 0.0179012
Ave special neighs/atom = 0.0234568
Neighbor list builds = 40756
Dangerous builds = 19

Total wall time: 0:01:18
