LAMMPS (3 Mar 2020)
# Single Chain in Solvent/CoSolvent
units		lj
atom_style	bond
boundary        p p p
timestep	0.005

pair_style      lj/cut 2.5
bond_style	fene

read_data       chain.data
  orthogonal box = (-5.77581 -5.77581 -5.77581) to (5.77581 5.77581 5.77581)
  1 by 1 by 1 MPI processor grid
  reading atoms ...
  6830 atoms
  reading velocities ...
  6830 velocities
  scanning bonds ...
  1 = max bonds/atom
  reading bonds ...
  29 bonds
  2 = max # of 1-2 neighbors
  2 = max # of 1-3 neighbors
  4 = max # of 1-4 neighbors
  6 = max # of special neighbors
  special bonds CPU = 0.00138283 secs
  read_data CPU = 0.0283968 secs

pair_coeff      1 1  1.0  1.00  1.12246
pair_coeff      1 2  0.5  0.75  1.87500
pair_coeff      1 3  1.0  0.75  1.87500
pair_coeff      2 2  1.0  0.50  0.56123
pair_coeff      2 3  1.0  0.50  0.56123
pair_coeff      3 3  1.0  0.50  0.56123

bond_coeff	1 30.0 1.5 1.0 1.0
special_bonds	fene
  2 = max # of 1-2 neighbors
  6 = max # of special neighbors
  special bonds CPU = 0.000825882 secs

set             type 2 type 3
  6800 settings made for type

group polymer 	type 1
30 atoms in group polymer
group solvent 	type 2
0 atoms in group solvent
group cosolvent type 3
6800 atoms in group cosolvent

velocity        all create 0.5 1337 dist gaussian

### add suitable fix(es) for time integration and thermostatting
fix             1 all nve
fix             2 all langevin 0.5 0.5 1.0 4129571

thermo          1000
run     	200000 ### enter equilibration time
Neighbor list info ...
  update every 1 steps, delay 10 steps, check yes
  max neighbors/atom: 2000, page size: 100000
  master list distance cutoff = 2.175
  ghost atom cutoff = 2.175
  binsize = 1.0875, bins = 11 11 11
  1 neighbor lists, perpetual/occasional/extra = 1 0 0
  (1) pair lj/cut, perpetual
      attributes: half, newton on
      pair build: half/bin/newton
      stencil: half/bin/3d/newton
      bin: standard
Per MPI rank memory allocation (min/avg/max) = 8.586 | 8.586 | 8.586 Mbytes
Step Temp E_pair E_mol TotEng Press 
       0          0.5  -0.76570023  0.086324675   0.07051464    10.051779 
    1000   0.50508186  -0.75597533  0.088092103  0.089628633    9.8661172 
    2000   0.49772403  -0.76352366  0.086962817  0.069915896     10.12596 
    3000    0.5063116  -0.75412779  0.087168372  0.092396784     10.04522 
    4000   0.51211171  -0.75855508  0.086684688  0.096184709    10.078418 
    5000   0.49810959  -0.75675465  0.087009744  0.077310086    10.064909 
    6000   0.50311454  -0.75695972  0.086545214  0.084146814    9.9462453 
    7000   0.49998897  -0.75136086  0.086792243   0.08530503    9.8332515 
    8000   0.49301226  -0.75797514  0.086920337  0.068355316    9.9375961 
    9000   0.49623834  -0.75636704  0.087156294  0.075037787    10.009487 
   10000   0.50484834  -0.76057282  0.087044848  0.083633657    9.9160136 
   11000    0.4952688  -0.76172139  0.086639832  0.067712873    9.9073655 
   12000   0.50099147  -0.74530872  0.086708445  0.092776903    9.9250598 
   13000   0.49724396  -0.75464725  0.086831533  0.077941024    10.094309 
   14000   0.50046587  -0.76197066  0.087204094  0.075822333    10.353608 
   15000    0.4968469  -0.75661992  0.086759081  0.075300383    9.8498572 
   16000   0.50842571  -0.74859488  0.087557988      0.10149    10.043497 
   17000   0.50398901  -0.75927667  0.086697282   0.08329345    10.085951 
   18000   0.49660395  -0.75521956  0.087007726  0.076585016    9.9784093 
   19000   0.50521905    -0.746851  0.086766328  0.097632944    9.9677185 
   20000   0.49900339  -0.76894621   0.08776959  0.067218873    10.166413 
   21000   0.50271786  -0.76958619  0.086760441  0.071140632    10.020085 
   22000   0.50364909  -0.75166738  0.086863688   0.09055933    10.234643 
   23000   0.50783783  -0.74824891  0.086736002   0.10013231    9.8757493 
   24000    0.4974143  -0.76480204  0.086792554  0.068002733    10.037336 
   25000    0.5042763  -0.75729346  0.086914556  0.085924802    10.121327 
   26000   0.50452715  -0.74527957  0.086607283  0.098007637    10.305451 
   27000   0.49931854  -0.75345402   0.08692376   0.08233789     9.934992 
   28000   0.50630253  -0.75407683   0.08706618  0.092331942    10.067514 
   29000   0.49549633  -0.76192289  0.086721528  0.067934312    9.9993628 
   30000   0.49103208  -0.75208977  0.086437024  0.070787532    9.9381256 
   31000   0.49549762  -0.74827385  0.087166812  0.082030574    10.125804 
   32000     0.498124  -0.75737469  0.087307156  0.077009068    10.016957 
   33000   0.50021777  -0.75252145  0.086643399  0.084338751     9.983092 
   34000   0.50579609  -0.74653789  0.086804978  0.098850142    10.028544 
   35000   0.50529828  -0.75739699  0.087122694  0.087562154     9.990698 
   36000     0.497328  -0.77041329  0.087166731  0.062636217    10.075924 
   37000   0.49878303  -0.74869097  0.086724354  0.086098375    9.9857179 
   38000   0.50192706  -0.74970405  0.086290712   0.08936702    10.007483 
   39000   0.49542335  -0.74695807  0.086530777  0.082598926    9.9660867 
   40000   0.50086145  -0.77785224   0.08674229  0.060072233    9.9961428 
   41000   0.49956998  -0.75855495  0.086655165   0.07734547    10.133043 
   42000   0.50045532  -0.75384133  0.087225488  0.083957228    9.9034567 
   43000   0.49442035  -0.75933416  0.087557671   0.06974546    9.8844235 
   44000   0.50705234  -0.76575696  0.086674129  0.081384324    10.122306 
   45000    0.4998387  -0.75558066  0.087220598  0.081288218    9.8124127 
   46000   0.50588004   -0.7596752  0.086739344  0.085773103    10.052923 
   47000   0.50568535  -0.75329965  0.086797916  0.091915235    10.071768 
   48000   0.50174461  -0.75402995  0.087160581  0.085637348    10.038977 
   49000   0.49990193  -0.75203499  0.087729606  0.085437716    10.093428 
   50000   0.49473733  -0.74085707  0.086916568  0.088056845    9.9884634 
   51000   0.50397306  -0.77058997  0.087147476  0.072406418    10.146306 
   52000   0.50255619  -0.75724628  0.087130976  0.083608604    10.270044 
   53000   0.50395307  -0.75951737   0.08645314  0.082754696    10.149615 
   54000   0.50126451  -0.76484168  0.086459183  0.073404182    10.157619 
   55000   0.50793595  -0.76017011  0.086870724  0.088492982    10.036099 
   56000   0.50785431  -0.74901889  0.086730395  0.099381429     9.974039 
   57000   0.50726623  -0.76449679  0.086581168   0.08287232      10.1034 
   58000   0.49836417  -0.74973961    0.0869565  0.084653697    10.089478 
   59000   0.49293094  -0.75659799  0.087272616  0.069962773    9.9847519 
   60000   0.48973078  -0.75357027  0.087078933  0.067997284    9.8974618 
   61000   0.50164719  -0.75873729  0.086104436  0.079727761    9.8083091 
   62000   0.49865371  -0.76386503  0.086382224   0.07038824    10.120285 
   63000   0.49945357  -0.75832475  0.086686098  0.077432014    10.007761 
   64000   0.50971319  -0.75406209  0.086659998  0.097055751    10.180288 
   65000   0.50078539  -0.74586287  0.086727384  0.091932615    10.213936 
   66000   0.50240458  -0.77313402  0.087069283  0.067431789      9.90719 
   67000    0.5080086  -0.75849742  0.087091709  0.090495621     10.04616 
   68000   0.49678853  -0.73980003  0.086874984  0.092148642    9.8867088 
   69000   0.49932132  -0.76663308   0.08687797  0.069117209     10.31456 
   70000   0.49375461  -0.74604693  0.086685108  0.081161658    10.106623 
   71000    0.4991328  -0.75029156  0.086531608  0.084829626    9.8910341 
   72000   0.50090487  -0.74805358  0.086934503  0.090128221    10.042582 
   73000   0.50275787  -0.75791852  0.086635709  0.082743588    10.005012 
   74000   0.50889592  -0.74684254  0.087635504   0.10402508    9.9590067 
   75000   0.49985373  -0.76200788  0.086798724  0.074461654    10.129893 
   76000   0.49498606  -0.76307466   0.08685466  0.066150386    9.9635727 
   77000   0.49788445  -0.76869676  0.087049339  0.065069903    10.158361 
   78000   0.50599434  -0.76897558  0.086558243  0.076463042    10.026868 
   79000   0.49827557  -0.75666027  0.087098222  0.077741873    10.126664 
   80000   0.49798977  -0.75462475  0.087161972  0.079412503    9.8453929 
   81000   0.49754427  -0.76073421  0.087218991  0.072691912    9.7928528 
   82000   0.50292416  -0.76311179  0.087328342  0.078492341    10.137208 
   83000   0.49599682  -0.76085163  0.087089909   0.07012458    9.9243571 
   84000   0.49779294  -0.75990261  0.086544378  0.073221853     10.06005 
   85000   0.50063787  -0.76462538  0.086939991  0.073161466    10.101806 
   86000   0.49664182  -0.75005321  0.086373251  0.081173698     10.01913 
   87000   0.50092709   -0.7575555  0.087118845  0.080843966    10.074791 
   88000   0.49280842  -0.75336176  0.086619515  0.072362163    10.103265 
   89000   0.49643674  -0.76002685  0.086638411  0.071157649    9.9317581 
   90000   0.49379382  -0.75662093   0.08657226  0.070533612     9.929567 
   91000   0.49429713   -0.7587148  0.086739391  0.069361725    10.132377 
   92000   0.49786235  -0.75540284  0.086343182  0.077624517    10.212065 
   93000   0.49788104  -0.74406411   0.08675571  0.089403821    9.9993485 
   94000   0.50403818  -0.75714668  0.086506381   0.08530628    10.025728 
   95000    0.5043176  -0.75843171  0.087268743  0.085202676     10.13146 
   96000   0.49867322  -0.75648925  0.087002687   0.07841375    10.048519 
   97000   0.50222702  -0.73973713  0.087229246   0.10072234    10.038934 
   98000   0.49284987  -0.75807695  0.086688687  0.067778302    9.8728845 
   99000   0.50421357  -0.76468438  0.086705917   0.07823115    10.017006 
  100000   0.49987913  -0.76878511  0.086883788  0.067807584     9.925387 
  101000   0.49784929  -0.75417656  0.086722431  0.079210473    9.8243507 
  102000   0.51203519  -0.75161924  0.086544918   0.10286601    10.094274 
  103000   0.50510401  -0.75965904   0.08719464  0.085080687    9.9963013 
  104000   0.50116958  -0.76127001  0.087141338  0.077515633    10.056003 
  105000   0.50008078  -0.75293002   0.08698998  0.084071311    10.066132 
  106000   0.50495556  -0.74529217  0.086799587  0.098829849    9.8428451 
  107000   0.50645742  -0.76633172  0.087156757  0.080399947    9.9862374 
  108000   0.49651265  -0.76522764  0.086558474  0.065990767    10.020342 
  109000   0.49210099  -0.75861338  0.086501581  0.065931613    10.068315 
  110000   0.49632608  -0.75842956  0.087200036  0.073150585    9.9273991 
  111000   0.50218929  -0.75423774  0.087276041  0.086211946    9.9923308 
  112000   0.49737691  -0.76075019  0.086950429  0.072156376    9.9674351 
  113000   0.50356162  -0.74979125  0.086896086  0.092336672    10.133042 
  114000   0.49888719  -0.76388535  0.087318026  0.071653907     10.06068 
  115000   0.50341837  -0.75495911  0.087144663  0.087202554    10.042443 
  116000   0.50885438  -0.74989793  0.086856823    0.1001287    9.8745863 
  117000   0.49944389  -0.75020896  0.086585985  0.085433168    9.9567424 
  118000   0.50112433   -0.7571258  0.086793077  0.081243725    9.8520643 
  119000   0.49696422  -0.76582061  0.087785673   0.06730225    10.125798 
  120000   0.49813099  -0.74046895  0.086693254  0.093311393    10.014381 
  121000   0.50207459   -0.7496599  0.086678848  0.090020568    10.095329 
  122000   0.49771974  -0.75469604  0.086926868  0.078701129    10.033838 
  123000   0.50194565  -0.74902055  0.086659988  0.090447678    10.231345 
  124000    0.5019838  -0.75930955  0.086474097  0.080030005    10.085777 
  125000   0.50565427  -0.76246158  0.086621469  0.082530232     10.03335 
  126000   0.50676822   -0.7626232  0.087357263  0.084775091     10.39537 
  127000   0.49068598  -0.75361485  0.087126924  0.069433271    9.9039905 
  128000   0.50890847  -0.75931057  0.087108297  0.091048669    10.190486 
  129000   0.50152231  -0.75292593  0.086917141  0.086164529    10.038797 
  130000   0.50416501  -0.74783837  0.086836914   0.09513534    10.084138 
  131000   0.50160457  -0.75107198  0.086537321  0.087762037     9.905912 
  132000   0.49729136  -0.76405872  0.086680762  0.068449867    10.173671 
  133000   0.50175587  -0.77502988  0.087453441  0.064947164    9.9858531 
  134000   0.49639746  -0.74470532  0.086812879  0.086594729    10.091242 
  135000   0.50476865  -0.76370989  0.086927856  0.080260087    10.370835 
  136000   0.49594113  -0.77389592  0.087071634  0.056978483    10.073015 
  137000   0.49683311  -0.74643319  0.087215962  0.085923313    9.9096365 
  138000   0.49774818  -0.76567391  0.086338352  0.067177405    10.098829 
  139000   0.49813314  -0.75855906  0.086695788  0.075227037    9.8415261 
  140000   0.49676125  -0.74773329  0.087274731   0.08457422    10.154081 
  141000   0.50729236  -0.76682859  0.086753065  0.080751606    10.159297 
  142000   0.49573427   -0.7682521  0.087007882  0.062248315    9.8514692 
  143000   0.49979336  -0.76516233  0.086694733  0.071112675    10.049992 
  144000   0.50497821  -0.74643057  0.087216888  0.098142721    9.8104111 
  145000   0.50357195  -0.75803431  0.086829927  0.084042948    10.173272 
  146000   0.50037964  -0.75285091  0.087155198  0.084763859     10.16284 
  147000   0.49928003  -0.75968935   0.08703981  0.076160848    10.221184 
  148000   0.49478545  -0.76499141  0.087475196  0.064553297    9.9576353 
  149000   0.50536104  -0.75118643  0.087052957  0.093797102    10.049441 
  150000   0.50104915  -0.75666786  0.086849039  0.081644868     9.993918 
  151000   0.49707257  -0.74023654  0.086473942  0.091737087    10.073148 
  152000   0.50671515  -0.75743362  0.086598575  0.089126395    10.070405 
  153000   0.50690347  -0.75955605  0.087022902  0.087710732     9.946707 
  154000   0.49946434  -0.76181479   0.08693259  0.074204616    10.048823 
  155000    0.4980972  -0.75923935  0.086812995  0.074610059     10.17168 
  156000    0.5045183  -0.75475447  0.087122425  0.089034599    10.126879 
  157000   0.49101875  -0.76293539  0.087250717  0.060735617    9.8102403 
  158000   0.49943221  -0.76595607  0.087105728  0.070188284    10.064888 
  159000   0.50038747  -0.76599785  0.087330496  0.071803949    10.093631 
  160000   0.50551034  -0.75970098  0.086845167  0.085298684    9.8902473 
  161000   0.49758154  -0.75126319  0.086640197  0.081640034     10.33252 
  162000     0.498623  -0.75991675  0.086564697   0.07447294     9.740512 
  163000   0.49327846  -0.75072404  0.087176175  0.076261494    10.015655 
  164000    0.5002003  -0.76843277  0.086885883   0.06864371    10.194115 
  165000   0.50429313  -0.75281098  0.087052354  0.090570314    9.9081383 
  166000    0.5044095  -0.74963626  0.086480468  0.093347671    10.020867 
  167000   0.50534096   -0.7652246  0.087199657  0.079875511    10.058258 
  168000   0.50437729  -0.76498153  0.086525779  0.077999409    9.8334052 
  169000   0.49755111  -0.76584297  0.086760456  0.067134881     9.911635 
  170000       0.4991  -0.76339147  0.086691136  0.071840048    9.8837553 
  171000   0.50697215   -0.7558074  0.087358446  0.091897936     10.07303 
  172000   0.49901196  -0.75295337  0.087047833  0.082502813    9.9807458 
  173000   0.50173753  -0.75329008  0.086698921  0.085904948    10.202167 
  174000   0.50157885  -0.75518766  0.086906695  0.083977155    10.163339 
  175000   0.50125292   -0.7546749  0.086843419  0.083937816    10.014544 
  176000   0.49860917  -0.75529323  0.087038071  0.079549096    10.042309 
  177000   0.50318367  -0.74367109  0.086628797  0.097622705    9.9674704 
  178000   0.50336651  -0.74890968  0.086505636   0.09253517      9.98452 
  179000   0.50642463  -0.77010835  0.086639524    0.0760569    10.152843 
  180000   0.49667865   -0.7621795  0.086525701  0.069255095    10.081829 
  181000   0.50501228  -0.74986373  0.086868708  0.094412495    9.8583415 
  182000   0.50047031  -0.75341377  0.086577982  0.083759761    10.160721 
  183000   0.51166362  -0.75892306  0.087370861  0.095830862    10.142568 
  184000   0.50286489  -0.77434348  0.086405973  0.066249395    9.9628373 
  185000   0.49630102  -0.74550937  0.086748177  0.085581342    9.8094345 
  186000   0.50207656  -0.76192683  0.086524077  0.077601817    10.089356 
  187000   0.49883055  -0.74838601  0.086792779  0.086543046    10.113285 
  188000   0.49562953  -0.76633597  0.086683964  0.063683441    10.120037 
  189000   0.49407464  -0.75568815  0.086644046  0.071959337    10.119164 
  190000   0.49434588  -0.75130427  0.086829004  0.076934994    9.9869145 
  191000   0.50576267    -0.755824  0.087401542  0.090110467    10.128974 
  192000    0.5005786  -0.75443729  0.087189749  0.083510427     10.25866 
  193000   0.49926785  -0.76408369  0.087553204  0.072261645    9.9997851 
  194000   0.50144028  -0.75344632   0.08666288  0.085266859    9.9382677 
  195000   0.50468321  -0.76666615  0.086700076  0.076947898    10.261579 
  196000   0.50182432  -0.74666205  0.086792681  0.092756902    10.185055 
  197000   0.49607712  -0.75766386  0.086705924  0.073048786    9.9451482 
  198000   0.49950562  -0.75329445  0.087202561  0.083056835    10.007648 
  199000   0.50112195   -0.7564343  0.086824693  0.081963268    10.109583 
  200000   0.49355384  -0.75022917  0.086416867  0.076410058    9.8739699 
Loop time of 997.451 on 1 procs for 200000 steps with 6830 atoms

Performance: 86620.804 tau/day, 200.511 timesteps/s
95.3% CPU use with 1 MPI tasks x no OpenMP threads

MPI task timing breakdown:
Section |  min time  |  avg time  |  max time  |%varavg| %total
---------------------------------------------------------------
Pair    | 178.56     | 178.56     | 178.56     |   0.0 | 17.90
Bond    | 0.6052     | 0.6052     | 0.6052     |   0.0 |  0.06
Neigh   | 640.3      | 640.3      | 640.3      |   0.0 | 64.19
Comm    | 38.839     | 38.839     | 38.839     |   0.0 |  3.89
Output  | 0.028667   | 0.028667   | 0.028667   |   0.0 |  0.00
Modify  | 131.36     | 131.36     | 131.36     |   0.0 | 13.17
Other   |            | 7.754      |            |       |  0.78

Nlocal:    6830 ave 6830 max 6830 min
Histogram: 1 0 0 0 0 0 0 0 0 0
Nghost:    10989 ave 10989 max 10989 min
Histogram: 1 0 0 0 0 0 0 0 0 0
Neighs:    43378 ave 43378 max 43378 min
Histogram: 1 0 0 0 0 0 0 0 0 0

Total # of neighbors = 43378
Ave neighs/atom = 6.3511
Ave special neighs/atom = 0.00849195
Neighbor list builds = 19642
Dangerous builds = 16083
reset_timestep  0

write_data      eq.data

### after equilibrating, perform measurements and output to files
### enter suitable Lammps commands

compute         rg polymer gyration
fix             rg polymer ave/time 1000 1 1000 c_rg file rg.txt

dump            3 polymer custom 1000 unwrapped.txt id mol type xu yu zu
dump_modify     3 sort id

dump            3w polymer custom 1000 wrapped.txt id mol type x y z
dump_modify     3w sort id

run             200000 ### enter measurement time
Per MPI rank memory allocation (min/avg/max) = 11.59 | 11.59 | 11.59 Mbytes
Step Temp E_pair E_mol TotEng Press 
       0   0.49355384  -0.75022917  0.086416867  0.076410058    9.8739699 
    1000   0.50430064  -0.75506161  0.086774246  0.088052853    9.9573597 
    2000   0.49640229   -0.7550051  0.086803431  0.076292739    9.9727434 
    3000   0.49128129  -0.74396624  0.087016087  0.079863876    10.054734 
    4000    0.5021158  -0.75925335  0.086569076  0.080379158    10.162155 
    5000   0.50466643  -0.75137487  0.086621778  0.092135714    9.7241478 
    6000   0.50876936  -0.74724931  0.086693691   0.10248668    10.045859 
    7000   0.49984919  -0.75889401   0.08672682   0.07749681    10.160707 
    8000   0.50341196  -0.76663543  0.086768757  0.075140713    9.8299424 
    9000   0.49511608  -0.75674936  0.086503209  0.072319241    10.042002 
   10000   0.50003804   -0.7491376  0.087080444  0.087890086    10.027224 
   11000   0.49970647  -0.75064599  0.086866336  0.085670303    10.088212 
   12000   0.50087952  -0.76143656  0.087013814  0.076786527    9.9085339 
   13000   0.49868959  -0.75732396  0.086786835  0.077387738    9.8697518 
   14000   0.49446835  -0.75651198  0.086630663  0.071712616    10.222972 
   15000   0.50786498    -0.740552  0.086668551   0.10780248    10.038625 
   16000   0.49717559  -0.75509556  0.087606086  0.078164715    9.9226733 
   17000   0.50049724  -0.76254093   0.08772526  0.075820273    10.145358 
   18000   0.50276047  -0.75797601  0.087405979  0.083460254    10.047274 
   19000    0.4955329  -0.76150625  0.087215451  0.068899728    9.9856758 
   20000   0.50355238  -0.75542998  0.086353406  0.086141415    10.099291 
   21000   0.49525959  -0.76361063     0.087513  0.066682989    9.8752133 
   22000   0.50114302  -0.75507993  0.086786622  0.083311155    9.9115439 
   23000   0.49646399  -0.75533925  0.087152751  0.076400447    9.9177172 
   24000   0.50345286   -0.7617503  0.087134181  0.080452602    10.156305 
   25000   0.49598815  -0.74530843  0.086908547  0.085473416     10.24711 
   26000   0.50317764  -0.75874832  0.086820045  0.082727688    9.9120817 
   27000   0.50038739  -0.75080909  0.087182083   0.08684418    9.9753297 
   28000   0.50624773  -0.74630441  0.086691429  0.099647435    9.8195414 
   29000   0.49680188  -0.75853385  0.086785486  0.073345354     10.26849 
   30000   0.50361965   -0.7556309  0.087345247  0.087033224    9.9321764 
   31000    0.5015377  -0.74321132  0.087014661  0.095999738    10.098912 
   32000   0.49339953  -0.75549437  0.087089613  0.071586179    9.6413188 
   33000    0.4963425  -0.75966621  0.086659728  0.071398255    10.001122 
   34000   0.50908063  -0.74998217  0.086931669   0.10045865    10.006432 
   35000   0.50200189  -0.75233047  0.087022877  0.087584992    9.9789561 
   36000    0.5042161  -0.75908229  0.086985898  0.084117025    10.168958 
   37000   0.50055793  -0.76207402  0.086759168  0.075412106    10.025759 
   38000   0.51029177  -0.76203364  0.086689758  0.089981709    10.064921 
   39000   0.50451139  -0.74423265  0.087014125  0.099437758    9.8637652 
   40000    0.5045907  -0.74551327  0.087167057  0.098429017    10.081549 
   41000   0.50363907  -0.75601449   0.08713378  0.086467281    10.147278 
   42000   0.49443822  -0.74860538  0.086954643  0.079898004    10.076384 
   43000   0.50538314  -0.75604944  0.086858668  0.088772944    10.143994 
   44000   0.49724142  -0.76111276  0.086600644  0.071240805    9.9899037 
   45000    0.4975409  -0.75568554  0.086938266    0.0774548    9.9927675 
   46000   0.49830646  -0.75862591  0.086599378  0.075323712    9.7431845 
   47000   0.50460865  -0.75556148  0.086975638  0.088216313    10.101937 
   48000   0.49700125  -0.76002005  0.086864014  0.072236692    9.8716221 
   49000   0.49726286  -0.76680612  0.086892218  0.065871177    9.9547839 
   50000   0.49908605  -0.75534639   0.08697841   0.08015149     10.28813 
   51000   0.49825877  -0.75958721   0.08635112  0.074042636    10.152195 
   52000   0.50029353  -0.74275222  0.086506025   0.09408423    9.7278015 
   53000    0.5006498  -0.74784069   0.08682695  0.089851005    10.060959 
   54000   0.49385354   -0.7643176  0.087435453  0.063789705    9.9199849 
   55000   0.49775073  -0.76292469  0.086914497  0.070506576    9.9505061 
   56000   0.49773471  -0.74905397  0.086846051  0.084284827     9.956394 
   57000    0.4947469  -0.75471955  0.087078791  0.074370941    10.008832 
   58000   0.50302705  -0.76304672  0.086908883  0.078292256    9.8649661 
   59000   0.50720896  -0.76552664  0.086842199  0.082017602    10.330047 
   60000   0.50643641  -0.75813606  0.086658305  0.088065633    10.239703 
   61000   0.50164964  -0.76696218  0.086801127  0.072203235     9.817004 
   62000   0.49754613  -0.74433049  0.086829531  0.088708969    9.7706776 
   63000   0.50253647  -0.75480703  0.086627954  0.085515266    10.078318 
   64000   0.50704116  -0.75442492  0.087430606  0.093456069    10.063919 
   65000   0.50185417  -0.76600271  0.086854768  0.073523098    10.076501 
   66000   0.49711679  -0.75645903  0.086796808  0.075903779    9.9588959 
   67000   0.49748418  -0.75449164  0.087074831  0.078700205    9.9871216 
   68000    0.5028212  -0.76018418  0.086973172  0.080910366    9.8821101 
   69000   0.50204247  -0.75727604  0.086393744  0.082071147    9.9129167 
   70000   0.50077171  -0.76682828  0.086530108  0.070749411    10.132105 
   71000   0.49960472  -0.76071545  0.086762388  0.075344298    9.9817198 
   72000   0.50163743  -0.75290763   0.08717164  0.086609983    10.005164 
   73000   0.49191454  -0.76165589  0.086638554  0.062746434    10.153222 
   74000    0.5073286  -0.76429332  0.086702968  0.083291124    10.155118 
   75000   0.49976537  -0.74827727  0.086893142  0.088154168    10.026224 
   76000   0.50262529  -0.75654966  0.086895963  0.084173852    10.106879 
   77000   0.49489644  -0.75764748  0.087288204  0.071876699    9.9808696 
   78000    0.4973402  -0.76238232  0.086796881  0.070315641    10.141401 
   79000   0.50024462  -0.75205116  0.087113641   0.08531955    9.8255607 
   80000    0.4984475  -0.74933355  0.086917265  0.085145499    9.7949348 
   81000   0.49746246  -0.74993743  0.086834708  0.082981721    10.072073 
   82000   0.49685912  -0.75841104  0.086780941  0.073549459    9.9753445 
   83000   0.50409075  -0.76062007  0.086789013   0.08219436    9.9574202 
   84000   0.50077442  -0.75195983  0.087404983  0.086496796    9.9340735 
   85000   0.49378994  -0.75250741  0.087053431  0.075122489    9.7230187 
   86000   0.50189008  -0.75214367  0.087085313  0.087666546    9.9752509 
   87000   0.50557574  -0.73998159  0.086757378   0.10502837    10.180338 
   88000   0.50250325  -0.75192297  0.086479357  0.088200898    9.9378276 
   89000   0.50470504  -0.74906565  0.087068561   0.09494963    10.070803 
   90000   0.50920733  -0.75845858  0.086877777  0.092118354     10.04883 
   91000   0.50113687  -0.76276915  0.086886419  0.075712518    9.9961411 
   92000   0.51171682  -0.74231786  0.086664237   0.11180922     10.09164 
   93000   0.50755139  -0.74314455  0.087333924   0.10540499    10.124173 
   94000   0.49945428  -0.76767027  0.086700867  0.068102326    10.019451 
   95000   0.50083077  -0.74526821  0.086998143    0.0928661    9.9085603 
   96000   0.50039776  -0.75636692  0.086779676  0.080899504    9.8038385 
   97000   0.50325098  -0.76556626  0.086687505    0.0758872    9.9151316 
   98000   0.50234925  -0.76445298  0.087222634  0.076183201    9.9991587 
   99000   0.49565046  -0.75460355  0.087378476  0.076141762    9.8620268 
  100000   0.50113014  -0.75724837  0.086788723  0.081125511    10.110277 
  101000    0.5002865   -0.7427613  0.087032248  0.094590829    9.9147238 
  102000   0.49051326  -0.75800335  0.086704902  0.064363719    10.084505 
  103000   0.48898021  -0.76891957  0.086808684  0.051252045    9.9015062 
  104000    0.5064538  -0.75320255     0.087176  0.093542932    10.106581 
  105000   0.50291459   -0.7625712  0.086637963  0.078328197    9.9787735 
  106000   0.49951977  -0.76263386  0.086373296  0.072909386    9.9917438 
  107000   0.49848696  -0.75789429   0.08644671  0.076173379    9.9992944 
  108000   0.50690679  -0.75851971  0.086356963  0.088086112    10.045002 
  109000   0.50285243  -0.76661687  0.086758798   0.07431013    10.276459 
  110000   0.49928606  -0.75306598  0.087010744  0.082764192    10.074214 
  111000   0.50208866  -0.74883052  0.087573468  0.091765679    9.8432455 
  112000    0.5041908  -0.75497727  0.086632995   0.08783119    9.9593388 
  113000   0.49399547  -0.75658816  0.086779757  0.071076315    9.9643383 
  114000   0.50526897  -0.74772556  0.086462641  0.096529568    10.019283 
  115000   0.50241877  -0.75520475  0.087039899  0.085352965    9.9585791 
  116000   0.50356428  -0.74754885   0.08705062  0.094737596    10.056989 
  117000   0.50817208  -0.74357437   0.08755294   0.10612508    9.8076341 
  118000   0.49590754  -0.76206852  0.086532717  0.068216597    9.7602254 
  119000   0.50584466  -0.74608162  0.086633749  0.099208019    10.000193 
  120000   0.49690879  -0.75269734  0.087210808   0.07976752    9.8270509 
  121000   0.50599481  -0.75662936  0.086514261  0.088765987    9.9829235 
  122000   0.50585354  -0.74841876  0.086544422  0.096794873    9.9283871 
  123000   0.50034622  -0.75506437  0.086820106  0.082165172    9.8510263 
  124000   0.50564099  -0.76383685  0.087077244  0.081590833     9.991563 
  125000   0.50119872  -0.76322539  0.087047503  0.075510128    9.8862746 
  126000   0.50875608  -0.76376965  0.087342109  0.086594854    9.8302398 
  127000   0.50676354  -0.76191401  0.087124187  0.085244184    10.238902 
  128000   0.49509292  -0.76107449  0.086906907  0.068363065    10.226803 
  129000   0.49350229   -0.7493887  0.087234222  0.077990581    10.055291 
  130000   0.50884366  -0.74008616  0.086670904   0.10973848     9.943231 
  131000   0.50901116  -0.76213114  0.086664638  0.087938452      10.0117 
  132000   0.49844718  -0.73624302  0.087013133  0.098331405    10.028615 
  133000    0.4971139  -0.75199137  0.086702445  0.080272753    9.9991722 
  134000   0.49699491  -0.76887309   0.08689723  0.063407352    9.9669368 
  135000     0.509294  -0.75422067  0.086740111  0.096348594    10.217371 
  136000   0.49561747   -0.7605773  0.086618536  0.069358605     9.987458 
  137000   0.49866927  -0.77302505  0.087106275  0.061975618    10.234169 
  138000   0.50474926   -0.7692131  0.086998882  0.074798816    10.108963 
  139000   0.50686407  -0.76472737  0.087177673  0.082635088    10.139823 
  140000   0.50497305  -0.75309118   0.08725174  0.091509227    9.8588508 
  141000   0.50019995  -0.74895767  0.086584006  0.087816403    9.9975081 
  142000   0.50453008  -0.77202647  0.087706092  0.072363942    10.153889 
  143000   0.50157895  -0.75318546  0.087091794  0.086164605    10.140181 
  144000   0.49933444  -0.75461392  0.086679005  0.080957088     9.965836 
  145000   0.49972523  -0.76696405  0.086911952  0.069426002    10.009012 
  146000   0.49977924  -0.74901736  0.086811955  0.087353693    10.146597 
  147000   0.50124439  -0.75778319  0.086895922  0.080869228    10.092904 
  148000   0.50061795  -0.74889197  0.086886414  0.088811427    10.067383 
  149000   0.49231176  -0.75588018  0.086838681  0.069318023    9.8965561 
  150000   0.51042268  -0.74792124  0.087000731   0.10460141    9.8306908 
  151000   0.50433005  -0.76381645  0.087368977  0.079936843    9.9374615 
  152000   0.50441744  -0.76656222  0.086804201  0.076757358    10.112042 
  153000   0.50311468  -0.75713722  0.086833391  0.084257692     10.18473 
  154000   0.50117824  -0.75108249  0.086630874  0.087205683    10.044927 
  155000   0.50078754  -0.75315612  0.086968964  0.084884169    9.9797278 
  156000   0.49875378  -0.75046254   0.08663733  0.084195921    9.9475681 
  157000   0.50182279  -0.75917554  0.086746535  0.080194977    9.9767127 
  158000   0.49650191  -0.75963815  0.086570673  0.071576347    9.9789882 
  159000   0.49994476  -0.75669657  0.086562821  0.079673591    10.055128 
  160000   0.49802944  -0.75827813  0.086530371   0.07518702    9.9738891 
  161000   0.49615329  -0.74358539  0.086855353  0.087390934    10.032821 
  162000   0.49267501  -0.75200511  0.086544252  0.073443455    9.9516581 
  163000   0.50085004  -0.75159318  0.086973056  0.086544935    10.346151 
  164000   0.50044906  -0.74982658  0.086498135  0.087235238    9.9544271 
  165000    0.5011095  -0.75630144   0.08672107  0.081973823    9.9917658 
  166000    0.5038662  -0.75047631  0.087214535  0.092426862    10.108874 
  167000   0.50030223  -0.75799704  0.086737059   0.07908348    10.143634 
  168000    0.4971284  -0.75517143  0.086711221   0.07712321    10.081689 
  169000   0.50154041   -0.7576929  0.086988859  0.081496424    9.9080928 
  170000   0.49052007  -0.76174478  0.086863248  0.060790843    9.7715523 
  171000   0.50401494  -0.76331381  0.087325701  0.079923612    10.156328 
  172000   0.49669931  -0.76678864  0.087287682   0.06543892    10.027637 
  173000   0.50068284  -0.74923604  0.086748635  0.088426891    9.8824822 
  174000   0.49501066  -0.76777141  0.086497309  0.061133174    10.124907 
  175000   0.49470997  -0.75495589  0.087721817  0.074722233     10.07188 
  176000   0.50185998  -0.74985022   0.08697556  0.089805094    9.6762613 
  177000   0.50056695   -0.7580643  0.086592075   0.07926827    10.039604 
  178000   0.50734124  -0.75901751  0.086644481  0.088527417     9.899355 
  179000   0.50458473   -0.7661635  0.087131476  0.077734245    10.041381 
  180000   0.50100572  -0.75714704  0.086941058  0.081192568    10.077191 
  181000   0.49588489  -0.75626331  0.086683994  0.074139111    10.058748 
  182000   0.49430395  -0.75957492  0.086996389   0.06876883    9.8242889 
  183000   0.50173346  -0.76195992  0.086936986   0.07746707    10.125132 
  184000   0.49240319  -0.75447086  0.086643867  0.070669648    10.129858 
  185000   0.50066278  -0.74420865  0.086904782  0.093580344    9.9144388 
  186000   0.50286716  -0.76195028  0.086781249  0.079021275    9.8390583 
  187000   0.50934831  -0.74951422   0.08690354   0.10129992    9.7911464 
  188000   0.49878429  -0.75499935  0.086896081  0.079963622    10.120511 
  189000   0.50705129  -0.75506127  0.086768641  0.092172958    9.9206277 
  190000   0.49795379  -0.75782309  0.087347397  0.076345628    10.210645 
  191000   0.50397128  -0.74192511   0.08751986   0.10144098    9.9086298 
  192000   0.49668115  -0.75730783   0.08660034  0.074205151    10.068681 
  193000    0.5008448  -0.75312999  0.087128024  0.085155241    9.8321223 
  194000   0.50178824  -0.75840131  0.086497921  0.080668774    10.115995 
  195000   0.50299041  -0.76516853  0.087002111  0.076208737    10.019403 
  196000   0.50109424  -0.76252831  0.087251423  0.076254427    9.9954242 
  197000   0.50522117  -0.76023489  0.087057643  0.084543553    9.8429955 
  198000   0.50057299  -0.75738651  0.087001449  0.080364486    10.130947 
  199000   0.50107131   -0.7604012  0.086974194  0.078069919    10.086763 
  200000   0.49857451  -0.75349519  0.087147177  0.081404261    9.9605486 
Loop time of 912.605 on 1 procs for 200000 steps with 6830 atoms

Performance: 94673.994 tau/day, 219.153 timesteps/s
96.4% CPU use with 1 MPI tasks x no OpenMP threads

MPI task timing breakdown:
Section |  min time  |  avg time  |  max time  |%varavg| %total
---------------------------------------------------------------
Pair    | 162.07     | 162.07     | 162.07     |   0.0 | 17.76
Bond    | 0.49587    | 0.49587    | 0.49587    |   0.0 |  0.05
Neigh   | 583.41     | 583.41     | 583.41     |   0.0 | 63.93
Comm    | 34.961     | 34.961     | 34.961     |   0.0 |  3.83
Output  | 0.078958   | 0.078958   | 0.078958   |   0.0 |  0.01
Modify  | 124.41     | 124.41     | 124.41     |   0.0 | 13.63
Other   |            | 7.189      |            |       |  0.79

Nlocal:    6830 ave 6830 max 6830 min
Histogram: 1 0 0 0 0 0 0 0 0 0
Nghost:    10984 ave 10984 max 10984 min
Histogram: 1 0 0 0 0 0 0 0 0 0
Neighs:    43494 ave 43494 max 43494 min
Histogram: 1 0 0 0 0 0 0 0 0 0

Total # of neighbors = 43494
Ave neighs/atom = 6.36808
Ave special neighs/atom = 0.00849195
Neighbor list builds = 19635
Dangerous builds = 16000

write_data      final.data
Total wall time: 0:31:50
