LAMMPS (3 Mar 2020)
# Single Chain in Solvent/CoSolvent
units		lj
atom_style	bond
boundary        p p p
timestep	0.005

pair_style      lj/cut 2.5
bond_style	fene

read_data       chain.data
  orthogonal box = (-5.77581 -5.77581 -5.77581) to (5.77581 5.77581 5.77581)
  1 by 1 by 1 MPI processor grid
  reading atoms ...
  6830 atoms
  reading velocities ...
  6830 velocities
  scanning bonds ...
  1 = max bonds/atom
  reading bonds ...
  29 bonds
  2 = max # of 1-2 neighbors
  2 = max # of 1-3 neighbors
  4 = max # of 1-4 neighbors
  6 = max # of special neighbors
  special bonds CPU = 0.00886297 secs
  read_data CPU = 0.0860701 secs

pair_coeff      1 1  1.0  1.00  1.12246
pair_coeff      1 2  0.5  0.75  1.87500
pair_coeff      1 3  1.0  0.75  1.87500
pair_coeff      2 2  1.0  0.50  0.56123
pair_coeff      2 3  1.0  0.50  0.56123
pair_coeff      3 3  1.0  0.50  0.56123

bond_coeff	1 30.0 1.5 1.0 1.0
special_bonds	fene
  2 = max # of 1-2 neighbors
  6 = max # of special neighbors
  special bonds CPU = 0.00233793 secs

set             atom 6151*6830 type 3
  680 settings made for type

group polymer 	type 1
30 atoms in group polymer
group solvent 	type 2
6120 atoms in group solvent
group cosolvent type 3
680 atoms in group cosolvent

velocity        all create 0.5 1337 dist gaussian

### add suitable fix(es) for time integration and thermostatting
fix             1 all nve
fix             2 all langevin 0.5 0.5 1.0 4129571

thermo          1000
run     	200000 ### enter equilibration time
Neighbor list info ...
  update every 1 steps, delay 10 steps, check yes
  max neighbors/atom: 2000, page size: 100000
  master list distance cutoff = 2.175
  ghost atom cutoff = 2.175
  binsize = 1.0875, bins = 11 11 11
  1 neighbor lists, perpetual/occasional/extra = 1 0 0
  (1) pair lj/cut, perpetual
      attributes: half, newton on
      pair build: half/bin/newton
      stencil: half/bin/3d/newton
      bin: standard
Per MPI rank memory allocation (min/avg/max) = 8.586 | 8.586 | 8.586 Mbytes
Step Temp E_pair E_mol TotEng Press 
       0          0.5    -0.720174  0.086324675   0.11604086    10.093934 
    1000   0.50852264  -0.70589109  0.086576589   0.14335777    10.166688 
    2000   0.49741378  -0.70602333  0.086619354   0.12660745    10.227831 
    3000   0.49471279  -0.70857812  0.086575621   0.11995804    10.069263 
    4000   0.49984407  -0.71328587  0.086779721   0.12315019    10.159007 
    5000   0.49709285  -0.70785044  0.087651502   0.12533116    10.051957 
    6000    0.4993205  -0.70025808  0.087011814   0.13562482    9.9470539 
    7000   0.50420193  -0.70849678   0.08672988   0.13442526    10.068837 
    8000   0.50428841  -0.70620827   0.08687569   0.13698929    10.189109 
    9000   0.50003523  -0.71309513  0.086798627   0.12364652    10.302194 
   10000   0.50188205  -0.71063437  0.087119458   0.12919793    10.175194 
   11000    0.4977442  -0.71217387  0.087300296   0.12163342    10.150048 
   12000   0.49678352  -0.71659471  0.086816911   0.11528837     10.10391 
   13000   0.51138721  -0.71292302  0.086495454   0.14054094    10.244378 
   14000   0.50639927  -0.71737646  0.086991582   0.12910281    10.146313 
   15000   0.50258894  -0.70772429  0.086879179   0.13292792    10.139671 
   16000   0.50900588  -0.70985647  0.087005883   0.14054644    10.013189 
   17000   0.50562827  -0.70860649  0.087459141   0.13718402    10.047907 
   18000    0.5009088  -0.71210512  0.087592366   0.12674044    10.197182 
   19000   0.49951123  -0.71253399  0.086410899   0.12303406    10.112997 
   20000   0.50108263  -0.70708179  0.086829566   0.13126168    10.061704 
   21000   0.50132451  -0.70547122   0.08669473   0.13310017    10.386757 
   22000   0.50246375  -0.71334772  0.087363026   0.12760058    10.038103 
   23000   0.49682547  -0.71586132  0.086659647   0.11592742    9.9932653 
   24000   0.50830087   -0.7047858  0.086746321   0.14430019    10.288226 
   25000   0.50512914  -0.71432989  0.086844812    0.1300977     10.23176 
   26000   0.50289352   -0.7205163  0.086679461   0.12039299    10.030337 
   27000   0.49796863  -0.71962855   0.08671079   0.11392581    10.153312 
   28000   0.50193492  -0.71601484  0.086680405   0.12345771    9.8677357 
   29000   0.50061325  -0.71105018  0.086969356   0.12672911    10.223672 
   30000   0.49821082  -0.70404265  0.086976633   0.13014079    10.085165 
   31000   0.50239476  -0.71589011  0.086626547   0.12421825    10.182047 
   32000   0.50039633  -0.70059098   0.08657349   0.13646711     10.27038 
   33000   0.49323994  -0.71063258  0.086716267   0.11583527    10.129567 
   34000   0.50772301  -0.72206551  0.086883547   0.12629104    10.255368 
   35000   0.49848301  -0.70444002  0.087046973   0.13022199    10.014932 
   36000   0.49942854  -0.72380562  0.086811179   0.11203868    10.286861 
   37000   0.49944414  -0.71836493    0.0871523    0.1178439    10.050865 
   38000   0.49582112  -0.70661374  0.087696376   0.12470543    9.9072619 
   39000   0.49504332  -0.71101962  0.086621927   0.11805856    10.183218 
   40000   0.49075292  -0.72120691  0.087363669   0.10217836    9.9412112 
   41000   0.49876136  -0.70275549  0.086968054   0.13224507    9.8364714 
   42000   0.49605569  -0.71395592  0.086845874   0.11686454    10.233132 
   43000   0.50045565  -0.71346929  0.087477549   0.12458182    10.190648 
   44000   0.50465194   -0.7012544  0.086991947   0.14260462    10.270433 
   45000   0.50327202  -0.70305758   0.08660073   0.13834065    10.146111 
   46000   0.49914799   -0.7207329  0.086601975   0.11448144    10.084366 
   47000   0.50422595  -0.71563017  0.086906113   0.12750413    10.161652 
   48000   0.49425944   -0.7102449  0.086614348   0.11765007    9.9236075 
   49000   0.50656916  -0.70877341  0.086623223    0.1375923    10.288252 
   50000   0.50840214  -0.70498633  0.086770362   0.14427558    10.154803 
   51000   0.50132135  -0.69823323  0.087139101    0.1407778    10.016644 
   52000   0.50544361  -0.71807416  0.086756037   0.12673629     10.35344 
   53000   0.50078513  -0.71530546  0.086514056   0.12227631    10.386918 
   54000   0.49368715  -0.70429474  0.087286359   0.12341392    10.005942 
   55000   0.50629366  -0.70360128  0.086695153   0.14242317    9.9538687 
   56000   0.50431981  -0.71447748   0.08645891   0.12835039    10.145052 
   57000   0.49728183  -0.69727196  0.086828314   0.13536989    10.168845 
   58000   0.50604037  -0.71075068  0.086801041   0.13499978    10.239653 
   59000   0.50202779  -0.71881672  0.086725512   0.12084022    10.314276 
   60000   0.49822517  -0.71729353  0.086899278   0.11683408    9.9835745 
   61000   0.49592088  -0.71734952  0.086812698   0.11323558    10.200594 
   62000   0.49821882  -0.70718637  0.087188039   0.12722047    10.266384 
   63000   0.50279182  -0.70887253  0.087312837   0.13251762    10.172441 
   64000   0.50766571  -0.71608177  0.086962307    0.1322676    10.101976 
   65000   0.49587014  -0.72464816  0.086789563   0.10583772    10.268875 
   66000   0.50292563  -0.70936483   0.08650024   0.13141341    10.037069 
   67000   0.50172964  -0.70974278  0.086725642   0.12946714    10.087693 
   68000   0.48709713  -0.71386086  0.086940969   0.10361883    9.8773578 
   69000   0.49351332  -0.70981669  0.086927199    0.1172721    10.266049 
   70000   0.50166594  -0.70524823  0.086896319   0.13403683    10.155432 
   71000   0.50354563  -0.71136841  0.087349087   0.13118854    10.038747 
   72000   0.50034756  -0.71479679  0.086247461   0.12186213    10.091096 
   73000   0.49413065  -0.71817322  0.086641546   0.10955578     10.07633 
   74000   0.50078611  -0.71841328  0.087307723   0.11996362    10.066326 
   75000    0.5057136  -0.69671418  0.086992072   0.14873723    10.047606 
   76000   0.49665034  -0.70786545  0.086986521   0.12398752    10.256612 
   77000   0.49835883  -0.71660956  0.086516034   0.11733528    10.320544 
   78000   0.49767024  -0.71822556   0.08670835   0.11487886    10.049205 
   79000   0.50067096  -0.71250237  0.086865981   0.12526009    10.013797 
   80000   0.49898877  -0.70269435  0.086524232   0.13220344    10.100355 
   81000   0.50456258  -0.71762214  0.086574936   0.12568585    10.016904 
   82000   0.50655758  -0.70524509    0.0874457   0.14192574    10.191936 
   83000   0.49525041  -0.72446443  0.086797094   0.10509952     9.930971 
   84000   0.50824742  -0.71933665  0.086920783   0.12984364    10.179112 
   85000    0.4949419  -0.70695074    0.0867667   0.12212011    10.119424 
   86000    0.4990709  -0.72178601  0.086659372   0.11337011    9.9509506 
   87000   0.50416779   -0.7077348  0.087293089   0.13569925    10.040482 
   88000   0.49594767  -0.70349557   0.08692033   0.12723734    10.136941 
   89000   0.50370853  -0.71027421  0.086820202   0.13199817    9.8925739 
   90000   0.49213451  -0.70120267  0.086913229   0.12380424    10.076121 
   91000   0.49095985  -0.70633243  0.087034782    0.1170343     9.907438 
   92000   0.50019893  -0.71372526  0.086823995   0.12328727    9.8879173 
   93000   0.49529678  -0.70899491  0.086913118   0.12075461    10.340415 
   94000   0.50205313  -0.71496382  0.086514145   0.12451976     10.06771 
   95000   0.50409697  -0.71510144  0.086453669   0.12738698    10.331021 
   96000   0.50087634    -0.721037  0.086614665   0.11678217    10.172868 
   97000   0.50296391   -0.7296275  0.086552598   0.11126049    10.113741 
   98000   0.50777032  -0.72738885  0.086708773   0.12086389    10.206815 
   99000   0.50019496  -0.70653617  0.086709922   0.13035634    9.9321653 
  100000   0.49143867  -0.71534512  0.087360283   0.10906523    10.042745 
  101000   0.50345884  -0.72062465   0.08689975   0.12135279    10.070344 
  102000   0.50555009  -0.71311614  0.086893153   0.13199112    10.316019 
  103000   0.49776047  -0.72731023   0.08664539   0.10586655    10.304262 
  104000   0.49180366  -0.70406659  0.086775337   0.12030623    10.261546 
  105000   0.49566254  -0.71721673  0.087748684   0.11391691    9.9852956 
  106000   0.50390383  -0.71813501    0.0866136   0.12422367    10.143341 
  107000   0.50340307  -0.70175082   0.08703049   0.14027371    10.218884 
  108000    0.4934079  -0.70375939  0.086862296   0.12310639     10.18734 
  109000   0.49710262  -0.70992995  0.086643952   0.12225876    10.067735 
  110000     0.498926  -0.71113751  0.086932357   0.12407428    10.339611 
  111000   0.49938317   -0.7082718  0.086991888   0.12768517    10.124262 
  112000   0.49850033  -0.71382123  0.086840531   0.12066033     10.30775 
  113000   0.49714066  -0.70930486  0.086897204   0.12319416    10.102766 
  114000   0.49799846   -0.7020468   0.08705308   0.13189461    9.9838634 
  115000   0.49821348   -0.7142337  0.087539104   0.12051621    10.224841 
  116000   0.48777915  -0.71817675  0.087096409   0.10048127    10.132707 
  117000   0.49178289  -0.71095778   0.08689938   0.11350793    10.156595 
  118000   0.50239086  -0.71605803  0.086783541   0.12420146     10.09405 
  119000    0.5024117  -0.71987313  0.086488164   0.12012224    10.141607 
  120000   0.50490016  -0.70983045  0.086751678   0.13416058    10.062234 
  121000   0.50340985  -0.71765814  0.086593065   0.12393914    10.111245 
  122000   0.50380779  -0.69380496  0.086605998   0.14840208    10.066743 
  123000   0.49850258  -0.71276611  0.086540478   0.12141877    9.9965061 
  124000   0.49502196  -0.73731808  0.086539518  0.091645652     10.00606 
  125000   0.50571263  -0.71049353  0.086892228   0.13485659    10.431653 
  126000   0.49756798  -0.71857513  0.086791699   0.11445926    10.409633 
  127000   0.50468091  -0.71906863  0.086692359   0.12453425    10.262184 
  128000   0.50188679  -0.71200548   0.08673098   0.12744547    10.229222 
  129000   0.50491713  -0.71486786  0.086953364   0.12935031     10.27605 
  130000    0.5023654  -0.71099049  0.086895553   0.12934283     9.785702 
  131000   0.50491248  -0.71775876  0.086633839   0.12613292    10.146676 
  132000   0.50380634  -0.70227232  0.086688047   0.14001459      10.0468 
  133000   0.49884772  -0.73027201  0.086614592   0.10450461    10.047915 
  134000   0.49777201  -0.71830153   0.08691927   0.11516644    10.204534 
  135000   0.49874312  -0.71524794  0.087015235   0.11977243     10.25316 
  136000   0.50735843  -0.71832578  0.087259813   0.12986024    10.418639 
  137000   0.50267595  -0.69982638  0.086506444    0.1405836    10.195407 
  138000    0.5059457  -0.71561118  0.086972215   0.13016848    9.9232709 
  139000   0.50123327  -0.71872956  0.086760517   0.11977078     10.14579 
  140000   0.50309475  -0.71816899  0.086943315   0.12330596    10.034791 
  141000   0.50493969  -0.70594722  0.086796454   0.13814787    10.286476 
  142000    0.5028067  -0.71473471  0.086467957   0.12583288    10.077134 
  143000   0.48895904  -0.73249164  0.086727456  0.087566984    10.068377 
  144000   0.49439927  -0.70201153  0.087368735   0.12684752    10.449932 
  145000   0.49311757  -0.71947504  0.086636471    0.1067295    10.177427 
  146000    0.5023864  -0.70791492  0.087317859    0.1328722    10.307172 
  147000   0.49779509  -0.71103161  0.087172603    0.1227243    9.9765775 
  148000   0.49618056  -0.70829712  0.086844473   0.12270923     10.01387 
  149000   0.49827656  -0.70407757  0.087046185   0.13027403    9.9080262 
  150000   0.49917103  -0.71809048   0.08652623   0.11708267    10.192127 
  151000   0.49281118   -0.7234756  0.087048712   0.10268166    10.133928 
  152000    0.5037325  -0.70538498  0.086520704   0.13662385    10.300083 
  153000   0.49321862  -0.69222012  0.087020527   0.13452002    9.6828928 
  154000   0.50611368   -0.7068799  0.086670559   0.13885002    10.138928 
  155000   0.49507693  -0.71909134  0.086507771   0.10992309    10.286152 
  156000   0.49822396  -0.72288929  0.086557712   0.11089494    10.259069 
  157000   0.49735053  -0.71262744  0.086561254   0.11985038    10.127191 
  158000   0.50054802  -0.71060876  0.086786704   0.12689005    9.9721374 
  159000   0.49700082  -0.72652286  0.087831785     0.106701    9.9514217 
  160000    0.5016543  -0.72553722  0.086450814   0.11328488    10.116497 
  161000   0.50201265  -0.70240029  0.086715481   0.13722391    10.408574 
  162000   0.49888226  -0.71404909  0.086783314   0.12094805    10.234361 
  163000   0.50473738  -0.71697324   0.08675496   0.12677694    9.9327654 
  164000   0.49652568  -0.72183832  0.087301454   0.11014261    10.186853 
  165000    0.5006196  -0.71063116  0.086845095    0.1270334    9.9646258 
  166000   0.50569743  -0.71554411  0.086782076   0.12967305    10.151918 
  167000     0.503334  -0.71599827  0.086689359   0.12558156    10.192305 
  168000   0.50399515  -0.69961265  0.086870761   0.14314015    9.9409022 
  169000   0.50128138  -0.69910279  0.086991049   0.13970024    10.224291 
  170000   0.49548089  -0.71155485  0.087172286   0.11872995    10.041456 
  171000   0.50478169  -0.71568798  0.086909709   0.12828341    10.180286 
  172000   0.50370997  -0.70922541  0.086931836   0.13316075    10.238594 
  173000    0.5082775  -0.71966458  0.086858224   0.12949827    10.227537 
  174000   0.49764578   -0.7271157  0.086904923    0.1061486    10.185336 
  175000   0.50016145  -0.72806626  0.086708767   0.10877484    10.155772 
  176000   0.49759884  -0.71350144  0.086358725   0.11914626    9.9075628 
  177000    0.5022054  -0.71355327  0.086904294   0.12654883    10.190673 
  178000   0.49425788  -0.70946972  0.087055189   0.11886373    10.362023 
  179000   0.49791697  -0.71943979  0.086837154   0.11416347     10.14928 
  180000   0.48975007  -0.71787234  0.087232564   0.10387777    10.107778 
  181000   0.50461511  -0.72397213  0.086792974   0.11963269    10.318871 
  182000   0.50174795  -0.70671512  0.086895962   0.13269257    10.130279 
  183000   0.49706908  -0.72171292  0.087113514   0.11089504    10.192086 
  184000   0.50651838  -0.72012997  0.086612086   0.12614844    10.047596 
  185000   0.50285248  -0.72499898  0.087470065   0.11663937    10.087531 
  186000   0.50068513  -0.70246381    0.0872288   0.13568273    9.9519269 
  187000   0.49481878  -0.72215898   0.08660977   0.10657028    10.043213 
  188000   0.49637036  -0.69957056  0.087444904   0.13232087    10.143907 
  189000   0.50113637  -0.72694964  0.087160553   0.11180542    10.235543 
  190000   0.51464136  -0.71509708  0.086677393   0.14342933    10.159335 
  191000   0.49617338  -0.72439384  0.086776723   0.10653398    10.109664 
  192000   0.50581615  -0.71826117  0.086562821   0.12691479    10.276336 
  193000   0.50070876  -0.72551346  0.086957585   0.11239729     10.09779 
  194000     0.502527  -0.71519695  0.087406658   0.12588984    10.041002 
  195000   0.50164774  -0.72403148  0.086973966   0.11530392    9.9732228 
  196000   0.48973901   -0.7068399  0.086810438   0.11447149    10.206425 
  197000   0.49353891  -0.72513772  0.086945661   0.10200792    9.7462161 
  198000    0.5043316   -0.7207398    0.0876432   0.12329004    10.251129 
  199000    0.4955793  -0.70808323  0.087019467   0.12219635    10.127555 
  200000   0.49031109  -0.70977965  0.086501954   0.11208126    10.217008 
Loop time of 1339.46 on 1 procs for 200000 steps with 6830 atoms

Performance: 64503.482 tau/day, 149.314 timesteps/s
82.6% CPU use with 1 MPI tasks x no OpenMP threads

MPI task timing breakdown:
Section |  min time  |  avg time  |  max time  |%varavg| %total
---------------------------------------------------------------
Pair    | 248.04     | 248.04     | 248.04     |   0.0 | 18.52
Bond    | 0.96518    | 0.96518    | 0.96518    |   0.0 |  0.07
Neigh   | 856.72     | 856.72     | 856.72     |   0.0 | 63.96
Comm    | 59.598     | 59.598     | 59.598     |   0.0 |  4.45
Output  | 0.063319   | 0.063319   | 0.063319   |   0.0 |  0.00
Modify  | 162.79     | 162.79     | 162.79     |   0.0 | 12.15
Other   |            | 11.29      |            |       |  0.84

Nlocal:    6830 ave 6830 max 6830 min
Histogram: 1 0 0 0 0 0 0 0 0 0
Nghost:    10946 ave 10946 max 10946 min
Histogram: 1 0 0 0 0 0 0 0 0 0
Neighs:    43101 ave 43101 max 43101 min
Histogram: 1 0 0 0 0 0 0 0 0 0

Total # of neighbors = 43101
Ave neighs/atom = 6.31054
Ave special neighs/atom = 0.00849195
Neighbor list builds = 19641
Dangerous builds = 16065
reset_timestep  0

write_data      eq.data

### after equilibrating, perform measurements and output to files
### enter suitable Lammps commands

compute         rg polymer gyration
fix             rg polymer ave/time 1000 1 1000 c_rg file rg.txt

dump            3 polymer custom 1000 unwrapped.txt id mol type xu yu zu
dump_modify     3 sort id

dump            3w polymer custom 1000 wrapped.txt id mol type x y z
dump_modify     3w sort id

run             200000 ### enter measurement time
Per MPI rank memory allocation (min/avg/max) = 11.59 | 11.59 | 11.59 Mbytes
Step Temp E_pair E_mol TotEng Press 
       0   0.49031109  -0.70977965  0.086501954   0.11208126    10.217008 
    1000   0.50180558  -0.71478068  0.087263445   0.12508094      10.1486 
    2000   0.50067343  -0.71983677  0.086638417   0.11770183    10.120434 
    3000   0.50529479   -0.7161692  0.087008727   0.12867075    10.330885 
    4000    0.5017722  -0.69928428  0.086884586   0.14014841    10.329135 
    5000   0.49738964  -0.70785683   0.08726705   0.12538545    10.359458 
    6000   0.49095936   -0.7278897  0.086536886  0.094978395    9.6953793 
    7000   0.49947824  -0.71433948  0.086816371   0.12158456    10.337609 
    8000   0.50111051  -0.71151516  0.087315767   0.12735631    9.9923649 
    9000    0.4973215  -0.71322162  0.086510678   0.11916209    10.320928 
   10000   0.50628302  -0.72549732  0.086582515   0.12039853    10.016794 
   11000   0.50462303  -0.72463543  0.086657663   0.11884596    10.276546 
   12000    0.5030436  -0.72073083  0.087117354   0.12084144    10.100619 
   13000   0.50636153  -0.70627527  0.086747007   0.13990283    10.077761 
   14000   0.49586384  -0.72542188  0.086522741   0.10478772    10.153875 
   15000   0.50149445  -0.71292407  0.087675338   0.12688281    10.024677 
   16000   0.50441947  -0.70641909  0.086770459    0.1368698    10.064163 
   17000   0.50191562   -0.7097168  0.086750688   0.12979709     10.18886 
   18000   0.50024163  -0.70408008  0.086914846   0.13308734    10.017402 
   19000   0.49359803  -0.71765625   0.08780981   0.11044221    10.270976 
   20000   0.49854466  -0.71611964  0.086259876   0.11784774    10.222483 
   21000   0.50899795   -0.7041167  0.086514056    0.1457825    10.015815 
   22000   0.48885838  -0.71852738  0.087130233   0.10178306    10.129035 
   23000    0.4926195  -0.71321865  0.087791386   0.11339381    10.310622 
   24000    0.4946777  -0.72092687  0.086820598   0.10780164    10.040435 
   25000   0.48735669  -0.71467187  0.086719471    0.1029756      10.1225 
   26000   0.51317861  -0.71028427  0.087034985   0.14640592    10.206225 
   27000   0.50648773  -0.72579406  0.086709673   0.12053598    10.194589 
   28000     0.505752  -0.69706338  0.086698668   0.14815222    10.140808 
   29000   0.49557823  -0.73005386  0.086690031   0.09989468     10.07572 
   30000   0.49198806  -0.71872945  0.086538319   0.10568291    10.375511 
   31000   0.49959246  -0.71670634  0.086809502   0.11938214    10.240592 
   32000   0.50432736   -0.7044446  0.086558956   0.13849464    9.9916866 
   33000   0.49837613  -0.72190155  0.087002453   0.11255564    10.113191 
   34000   0.49975764  -0.72058164   0.08713844    0.1160835    9.8550139 
   35000   0.49715461  -0.71716348  0.086620793   0.11508004    10.205344 
   36000   0.49904585  -0.71637897  0.086483427   0.11856364    9.7029117 
   37000   0.48664149   -0.7110618  0.086801701   0.10559527    9.8505148 
   38000   0.50106494  -0.71296368  0.086401174   0.12492486    10.297753 
   39000   0.49654331  -0.72084438  0.086663204   0.11052474    10.016194 
   40000    0.4984765   -0.7230321  0.087183311   0.11175648    10.309672 
   41000   0.49828417  -0.71089767  0.086679079   0.12309823    10.097259 
   42000   0.50035199  -0.71684162   0.08700035   0.12057683    10.276162 
   43000    0.4948287  -0.71439741  0.086633539   0.11437051    10.056534 
   44000    0.5032224  -0.71489933  0.086664946   0.12648869    10.211279 
   45000   0.50292522  -0.71804296  0.086946895   0.12318131    10.076037 
   46000   0.49964333  -0.71703621  0.086581693   0.11890074    9.9618157 
   47000   0.49976274  -0.71596362  0.086711065   0.12028179    10.386992 
   48000    0.5002046  -0.72761022  0.086816255   0.10940307    10.214118 
   49000   0.49472948  -0.72167451  0.086831018   0.10714208    10.144711 
   50000   0.49386544  -0.73009469  0.086611782  0.097206796      10.0437 
   51000   0.50821816   -0.7183963  0.086646341   0.13046566    10.154314 
   52000   0.50181778  -0.71887534  0.086775014   0.12051613     9.955365 
   53000   0.49904172  -0.71033633  0.087066275   0.12518293    10.045693 
   54000   0.50945207  -0.71268733  0.087061785   0.13844066    9.9463354 
   55000   0.50344708  -0.70821893  0.086857466   0.13369859    10.224116 
   56000   0.49171552  -0.71036518  0.087008673   0.11410879    9.9810784 
   57000   0.50103668  -0.71755142  0.086588494   0.12048206    10.239244 
   58000   0.49620102   -0.7072511  0.086865992   0.12380745    10.419922 
   59000   0.50210812  -0.72191256  0.086690202   0.11782956    10.100073 
   60000   0.50202992  -0.71063956  0.086774432    0.1290695    9.9944158 
   61000   0.50401379  -0.71508999  0.086563618   0.12738362    10.098373 
   62000   0.50598855  -0.73087967    0.0868564   0.11484843    9.9953194 
   63000   0.49800215  -0.70244003  0.087470364   0.13192418    9.8524365 
   64000   0.49800745  -0.72164161   0.08697263   0.11223282    9.9526589 
   65000   0.50486872  -0.71193075  0.086621636   0.13188308    10.363668 
   66000   0.49704299   -0.7256735  0.086860672    0.1066425    10.290482 
   67000   0.49733109  -0.71490321  0.086654215   0.11763842    10.296841 
   68000   0.50359369  -0.71721957  0.086852207   0.12491258     9.976922 
   69000    0.4932582  -0.71114604  0.087467977   0.11610091    10.455577 
   70000   0.49657913  -0.71241319  0.086712393   0.11905884    10.082132 
   71000   0.50571645  -0.71425604  0.087196395   0.13140397    10.200375 
   72000   0.49807792  -0.70291663  0.087502542    0.1315934    10.272766 
   73000   0.49237203  -0.71762023   0.08679946   0.10762914    10.304274 
   74000   0.50609892  -0.71257903  0.086985328   0.13344352    10.377728 
   75000   0.49522647  -0.72480343  0.086994283   0.10492179    10.022208 
   76000   0.49952426  -0.70784375  0.086437623   0.12777056    10.142469 
   77000   0.49662026  -0.70753211  0.086593691    0.1238829     10.27235 
   78000   0.50259514  -0.70660802  0.087405678   0.13457998    10.225802 
   79000   0.49061858  -0.71166681  0.087700645   0.11185395    10.028757 
   80000   0.49823549  -0.71819718  0.086945986   0.11599262    10.163985 
   81000   0.50290065  -0.70638554    0.0870773   0.13493228    9.8707129 
   82000   0.49735708  -0.71330792  0.086835533     0.119454     10.23403 
   83000   0.49728997  -0.71528694  0.086453348   0.11699214    10.131583 
   84000   0.50097989  -0.72695794  0.087077428    0.1114793    10.087454 
   85000   0.49664254  -0.71358062  0.086855724   0.11812983    10.289785 
   86000   0.50003052   -0.7282727  0.086776154   0.10843942    10.133126 
   87000    0.4980024  -0.72578776  0.086707802   0.10781428     10.05223 
   88000   0.50350117  -0.71088517  0.087033802   0.13128981    10.075129 
   89000   0.50369267  -0.71594104  0.087153445    0.1266408    10.125137 
   90000   0.50630183   -0.7048454  0.087268927   0.14176509    9.9363729 
   91000   0.50287052  -0.71630564  0.086693369   0.12458306    10.101316 
   92000   0.50297329  -0.71909254  0.087044087   0.12230102     10.16264 
   93000   0.50767214  -0.71190961  0.086846896     0.136334    10.244446 
   94000   0.49963796  -0.71024197  0.086999078   0.12610432    10.201862 
   95000   0.50210746    -0.712905   0.08671332   0.12685923    9.9711761 
   96000    0.5050493  -0.71475515   0.08657142    0.1292793    10.150664 
   97000   0.50604215  -0.71779031  0.086718111    0.1278799    10.325613 
   98000   0.49318293  -0.69832193  0.087310295   0.12865445    10.144586 
   99000   0.49887264  -0.71631777  0.087055239   0.11893687    10.062784 
  100000   0.49855175  -0.71194876  0.087242409   0.12301178    10.078522 
  101000   0.50289361  -0.72214811  0.086590184   0.11867205    10.213932 
  102000   0.49678321  -0.71589535  0.086761249   0.11593161      10.0711 
  103000   0.49879078  -0.70231537  0.086915265   0.13267652    9.9918886 
  104000    0.5026737  -0.73042848  0.086883342   0.11035502    10.228745 
  105000   0.50354911  -0.71361655  0.086787002   0.12838353    10.029918 
  106000   0.50658681  -0.72146165  0.086796202   0.12510351    10.134212 
  107000   0.49928195  -0.70086215  0.087481128   0.13543225    10.218666 
  108000   0.51375585  -0.71710153  0.086625456   0.14004486    10.086372 
  109000   0.50255754  -0.71214265  0.086679497   0.12826279    10.186491 
  110000   0.50039864  -0.70933939   0.08676335   0.12791203    10.168548 
  111000   0.50470841  -0.69932604  0.086801767    0.1444275    10.017805 
  112000   0.50318877  -0.71150439  0.087008449    0.1301767    10.003689 
  113000   0.49734705  -0.70857673  0.087171178    0.1245058       10.016 
  114000   0.50146693  -0.72760433   0.08651047    0.1109964     10.18358 
  115000   0.50116045  -0.70852585  0.086726604   0.12983137    10.055998 
  116000   0.49809655  -0.70373817  0.086611918   0.12990918    10.014782 
  117000   0.50761508  -0.72263537  0.086615337    0.1252911    10.180072 
  118000   0.50308076  -0.71175219   0.08684882   0.12960728    10.365615 
  119000   0.50047546  -0.71763097  0.086427903    0.1194002    10.145056 
  120000   0.49308664  -0.71192856  0.087157099   0.11475021    10.071025 
  121000   0.50345696  -0.71085476  0.086684318   0.13090442    10.118247 
  122000   0.50511099   -0.7202139  0.087271587   0.12461325    9.9532792 
  123000   0.49823361  -0.71093689  0.086573873   0.12287797    10.267351 
  124000   0.50038655  -0.71501941  0.086561485     0.122012    9.9792975 
  125000   0.50321834  -0.71529142  0.087377548   0.12680312    10.201465 
  126000   0.50449319  -0.71600847   0.08716143   0.12778194    9.8795332 
  127000   0.49488943  -0.72261082  0.086878612   0.10649325    10.149461 
  128000   0.49717086    -0.712724  0.086631859   0.11955496    10.342917 
  129000    0.4978279  -0.71695159  0.087154184   0.11683511    10.005086 
  130000   0.49545756  -0.71097585  0.087356248   0.11945793    10.102303 
  131000   0.49046622  -0.71541347  0.086756187   0.10693433    9.8640257 
  132000   0.49833947  -0.71205776  0.086817562   0.12215955    10.123973 
  133000   0.49487586  -0.74457237  0.086641549  0.084274284    10.201244 
  134000   0.49507622   -0.7130899  0.086587325   0.11600302    10.138916 
  135000   0.49567597  -0.71288445   0.08661674   0.11713738    10.133324 
  136000   0.49798122  -0.71650124  0.086862013   0.11722324    10.187246 
  137000   0.50667625  -0.72421328  0.087011139   0.12270097    10.402337 
  138000   0.50822428  -0.71082191  0.087022678   0.13842558    10.324305 
  139000   0.50356034  -0.72511533  0.086991905    0.1171065    10.266166 
  140000   0.50760107  -0.71607395   0.08732531   0.13254149    10.118415 
  141000   0.49923382  -0.73171437  0.086793284      0.10382    10.455251 
  142000   0.50113134  -0.71732989  0.086721856   0.12097892    10.197763 
  143000   0.49803452  -0.71876734  0.087084814   0.11525987    10.219872 
  144000   0.50383323  -0.71612241  0.086934449   0.12645124    10.107405 
  145000   0.49373635  -0.69151032  0.086653519   0.13563929    9.8998911 
  146000   0.51357788  -0.70559562  0.086908531   0.15156694    9.8349176 
  147000   0.49946475  -0.71389063   0.08646781   0.12166461    10.185364 
  148000   0.49768832  -0.71012065  0.087219381   0.12352191    10.312142 
  149000   0.49254807  -0.70058525  0.086731547   0.12486022    10.066949 
  150000   0.49979251  -0.71602128   0.08688891   0.12044663    10.012695 
  151000   0.50525398   -0.7122284  0.086506945   0.13204855    10.025633 
  152000   0.49853569  -0.70195344  0.086792464   0.13253306    9.9032337 
  153000   0.50238867  -0.70693542   0.08664742   0.13318468     9.942128 
  154000   0.50288284  -0.71779942  0.087440773   0.12385517    10.184632 
  155000   0.49655475   -0.7174993  0.086560286   0.11378405    10.307066 
  156000   0.49466066  -0.71995045  0.086891881   0.10882379    9.9451387 
  157000   0.49858479  -0.72686196  0.087145412   0.10805113     10.23381 
  158000   0.49310918  -0.71463143  0.087254351    0.1121784    10.164124 
  159000   0.49551008   -0.7217033  0.086641075   0.10809407    10.184571 
  160000   0.49339625  -0.71094574   0.08660917   0.11564945    10.126243 
  161000   0.50205514  -0.72145972  0.086897525   0.11841025    10.217451 
  162000     0.496415  -0.70526986  0.086906126   0.12614975    10.073152 
  163000   0.49854661  -0.70839345  0.086768813   0.12608578    10.129519 
  164000     0.501371  -0.71795466  0.086992542   0.12098427    10.077672 
  165000   0.49778555  -0.70964912  0.086406803   0.12332668     10.25017 
  166000   0.50262788  -0.70741559  0.086884962    0.1333008    10.299624 
  167000   0.49864061  -0.72589551  0.086907083   0.10886297    10.018253 
  168000   0.50671315  -0.70826868  0.086613165   0.13830292    10.134372 
  169000   0.50564339  -0.70537487  0.086699467   0.13967864    10.295356 
  170000   0.49930436   -0.7256983  0.086868922    0.1100175     10.17783 
  171000   0.51087756  -0.71172922  0.087414979    0.1418899    10.127634 
  172000   0.49914216  -0.72241313  0.086545901   0.11273639    10.178638 
  173000   0.49811741  -0.72085592  0.087279065   0.11348986    10.083256 
  174000    0.5069054  -0.71448449   0.08697052   0.13273281    10.169135 
  175000   0.49779094  -0.71344687   0.08716436   0.12029457      10.2775 
  176000   0.49930759  -0.71690959  0.086728312   0.11867045    10.324778 
  177000   0.50453009  -0.71789845   0.08686484   0.12565072    10.302187 
  178000   0.50236602  -0.70974506   0.08668715   0.13038078    10.044871 
  179000   0.50049457  -0.71834799  0.086824676   0.11910863    9.9730696 
  180000   0.50212967  -0.72295263  0.086932407   0.11706401    9.8895648 
  181000   0.50035514  -0.71616341  0.086627787    0.1208872    9.9559375 
  182000   0.49534785  -0.74228405  0.086688551  0.087317489    10.245479 
  183000   0.49945104  -0.72232217  0.087066498   0.11381121     10.44937 
  184000   0.50194119  -0.70553829  0.086359499   0.13362276    10.018937 
  185000   0.50134142  -0.71195253  0.086820195   0.12676969    9.9913784 
  186000   0.50624754  -0.71467137    0.0867426   0.13133136    10.397354 
  187000   0.49587468  -0.72075723  0.086774022   0.10971991    10.015998 
  188000   0.49918152  -0.72116412  0.086936283   0.11443481    10.289311 
  189000   0.50477612  -0.70521279  0.087072611   0.13891313    10.288336 
  190000   0.49484559  -0.71376392  0.086897696   0.11529347    9.9590174 
  191000   0.50257716  -0.72596103  0.086960994   0.11475533    10.196561 
  192000   0.49898674  -0.71819044  0.086670729   0.11685081    10.174522 
  193000   0.50312104  -0.71555136  0.086975056   0.12599476    9.9087872 
  194000   0.50486581  -0.70853433  0.086860614   0.13551411    10.287715 
  195000   0.50353579  -0.71352422  0.086983519   0.12865239    10.279585 
  196000   0.50157137  -0.70664012  0.086953116   0.13255989     10.00065 
  197000   0.49924406  -0.72070274   0.08687522   0.11492893    10.120646 
  198000   0.50469126  -0.69975982  0.086722604   0.14388882    9.9570255 
  199000   0.49666361  -0.72819294  0.087231263   0.10392467     10.60945 
  200000   0.49406818  -0.72141305  0.086634108   0.10621482    10.167924 
Loop time of 1284.79 on 1 procs for 200000 steps with 6830 atoms

Performance: 67248.524 tau/day, 155.668 timesteps/s
82.7% CPU use with 1 MPI tasks x no OpenMP threads

MPI task timing breakdown:
Section |  min time  |  avg time  |  max time  |%varavg| %total
---------------------------------------------------------------
Pair    | 239.14     | 239.14     | 239.14     |   0.0 | 18.61
Bond    | 1.0617     | 1.0617     | 1.0617     |   0.0 |  0.08
Neigh   | 818.63     | 818.63     | 818.63     |   0.0 | 63.72
Comm    | 58.119     | 58.119     | 58.119     |   0.0 |  4.52
Output  | 0.11553    | 0.11553    | 0.11553    |   0.0 |  0.01
Modify  | 156.78     | 156.78     | 156.78     |   0.0 | 12.20
Other   |            | 10.94      |            |       |  0.85

Nlocal:    6830 ave 6830 max 6830 min
Histogram: 1 0 0 0 0 0 0 0 0 0
Nghost:    11047 ave 11047 max 11047 min
Histogram: 1 0 0 0 0 0 0 0 0 0
Neighs:    43076 ave 43076 max 43076 min
Histogram: 1 0 0 0 0 0 0 0 0 0

Total # of neighbors = 43076
Ave neighs/atom = 6.30688
Ave special neighs/atom = 0.00849195
Neighbor list builds = 19637
Dangerous builds = 16024

write_data      final.data
Total wall time: 0:43:44
