LAMMPS (3 Mar 2020)
# Single Chain in Solvent/CoSolvent
units		lj
atom_style	bond
boundary        p p p
timestep	0.005

pair_style      lj/cut 2.5
bond_style	fene

read_data       chain.data
  orthogonal box = (-5.77581 -5.77581 -5.77581) to (5.77581 5.77581 5.77581)
  1 by 1 by 1 MPI processor grid
  reading atoms ...
  6830 atoms
  reading velocities ...
  6830 velocities
  scanning bonds ...
  1 = max bonds/atom
  reading bonds ...
  29 bonds
  2 = max # of 1-2 neighbors
  2 = max # of 1-3 neighbors
  4 = max # of 1-4 neighbors
  6 = max # of special neighbors
  special bonds CPU = 0.00173187 secs
  read_data CPU = 0.0342019 secs

pair_coeff      1 1  1.0  1.00  1.12246
pair_coeff      1 2  0.5  0.75  1.87500
pair_coeff      1 3  1.0  0.75  1.87500
pair_coeff      2 2  1.0  0.50  0.56123
pair_coeff      2 3  1.0  0.50  0.56123
pair_coeff      3 3  1.0  0.50  0.56123

bond_coeff	1 30.0 1.5 1.0 1.0
special_bonds	fene
  2 = max # of 1-2 neighbors
  6 = max # of special neighbors
  special bonds CPU = 0.00100303 secs

set             atom 2751*6830 type 3
  4080 settings made for type

group polymer 	type 1
30 atoms in group polymer
group solvent 	type 2
2720 atoms in group solvent
group cosolvent type 3
4080 atoms in group cosolvent

velocity        all create 0.5 1337 dist gaussian

### add suitable fix(es) for time integration and thermostatting
fix             1 all nve
fix             2 all langevin 0.5 0.5 1.0 4129571

thermo          1000
run     	200000 ### enter equilibration time
Neighbor list info ...
  update every 1 steps, delay 10 steps, check yes
  max neighbors/atom: 2000, page size: 100000
  master list distance cutoff = 2.175
  ghost atom cutoff = 2.175
  binsize = 1.0875, bins = 11 11 11
  1 neighbor lists, perpetual/occasional/extra = 1 0 0
  (1) pair lj/cut, perpetual
      attributes: half, newton on
      pair build: half/bin/newton
      stencil: half/bin/3d/newton
      bin: standard
Per MPI rank memory allocation (min/avg/max) = 8.586 | 8.586 | 8.586 Mbytes
Step Temp E_pair E_mol TotEng Press 
       0          0.5   -0.7450467  0.086324675   0.09116817    10.086532 
    1000   0.51028995  -0.73189637  0.086929114    0.1203556     10.01585 
    2000   0.50579446  -0.73172179  0.087367363   0.11422619    10.089479 
    3000   0.50701848  -0.74023323  0.086675067   0.10685821    10.114658 
    4000   0.50789445  -0.74374529  0.086594825   0.10457967    10.050982 
    5000   0.49567052  -0.72807438    0.0875361   0.10285863     10.11789 
    6000   0.49537193  -0.74775062  0.087053682  0.082252157    9.9487113 
    7000   0.49879007  -0.74121546  0.086637638  0.093497729    10.099375 
    8000   0.50361482  -0.73434791  0.087296222   0.10825993    10.089937 
    9000   0.49704397  -0.75219351  0.086525405  0.079788697    9.9665659 
   10000   0.50969185  -0.74460508  0.087103192   0.10692394    9.9834842 
   11000   0.49695331  -0.74185996  0.087072863   0.09053372    10.091739 
   12000   0.50251717    -0.746469  0.086954034  0.094150428    9.8883769 
   13000   0.50089014  -0.73450845  0.086988394   0.10370514    9.9877515 
   14000   0.49778589  -0.74250293  0.087211705  0.091278281    10.167322 
   15000   0.49869657  -0.74548679  0.086889827  0.089338369    10.180279 
   16000   0.49481506  -0.75291481   0.08703155   0.07623066    10.029617 
   17000   0.50276778  -0.73672164  0.087014894    0.1043345    9.8542425 
   18000   0.50737983  -0.74426842  0.087494723   0.10418462    10.190751 
   19000   0.49417455  -0.74384082  0.086698053  0.084010525    9.9647982 
   20000   0.50275103  -0.74427837  0.086566172  0.096303931    10.162516 
   21000    0.5058339  -0.75127802  0.087242983  0.094604726    10.047923 
   22000   0.49630966  -0.74197173  0.087091706  0.089475464    9.8979346 
   23000   0.50092583  -0.73685619  0.086635267   0.10105781    10.274547 
   24000   0.50168677  -0.75512934   0.08658259  0.083873218    9.9678182 
   25000   0.50160344  -0.75346492  0.086953865  0.085783947    9.9077797 
   26000   0.49838319  -0.73912613  0.087298669  0.095637865    10.181871 
   27000   0.49943365  -0.73947978  0.087157398  0.096718399     10.11639 
   28000   0.49922439  -0.74459991   0.08702566  0.091152695    10.119899 
   29000   0.49883782  -0.73858393  0.086729384  0.096292633    10.001116 
   30000   0.49470525  -0.75647541  0.086779235  0.072253046    10.064018 
   31000   0.50299963   -0.7453737  0.087172178  0.096187454    9.9588077 
   32000   0.50857977  -0.74644082   0.08657161   0.10288875     10.13624 
   33000   0.50507883  -0.74371225  0.086721346   0.10051642    10.118551 
   34000    0.5021554  -0.75190991  0.087313583  0.088526484    10.139121 
   35000   0.49777251  -0.74181394  0.086716275  0.091451783     10.14003 
   36000   0.49475107  -0.73708555  0.086864328  0.091796718    9.9760853 
   37000   0.49772612  -0.74802128  0.086624788  0.085083366    9.9832273 
   38000    0.4936761  -0.74503259  0.086743005  0.082116152    9.8971838 
   39000   0.50129632  -0.74271425  0.087019391  0.096139518    9.9461621 
   40000    0.4995514  -0.74358359  0.086389683  0.092023477    10.035076 
   41000   0.49830927  -0.73502648  0.086662091   0.09899007    10.096182 
   42000   0.50109041  -0.73509157  0.086741065   0.10317506    10.369398 
   43000    0.4933298   -0.7427761  0.087059058  0.084169318    10.101558 
   44000   0.49196902  -0.75153457  0.086634906   0.07294583    9.8786954 
   45000    0.5005487  -0.74283292  0.086818754  0.094698961    10.026947 
   46000   0.50117684  -0.75123154  0.086932106   0.08735576     10.41166 
   47000   0.50903345  -0.75423736  0.087383774  0.096584805    9.9377481 
   48000   0.50230694  -0.74039644  0.086872175  0.099825835    9.8913947 
   49000   0.49791251  -0.72886117   0.08631454   0.10421278    10.173696 
   50000   0.50822328  -0.73740413  0.086503266   0.11132244    10.307892 
   51000   0.49880483  -0.74702857  0.086330774    0.0873999    10.073879 
   52000   0.49996373  -0.74605085  0.086871304  0.090656245    10.018515 
   53000   0.50139733  -0.74461404  0.087148414  0.094520252    10.113236 
   54000   0.49216727  -0.74892991   0.08723205  0.076444958    10.046088 
   55000   0.49677721  -0.74006473  0.086525134  0.091517116    10.016328 
   56000   0.49951395  -0.75295355  0.086981559  0.083189234    9.8973923 
   57000   0.50107004  -0.74917974  0.087193615  0.089508886    9.9866314 
   58000   0.49640144  -0.74671747  0.086664562  0.084440231    9.7842436 
   59000   0.49586634  -0.74178868  0.087411429  0.089313361    10.111027 
   60000   0.49902115  -0.75083734  0.087285054  0.084869838    10.173575 
   61000   0.50253855  -0.73716135  0.086938434   0.10347454    9.9900416 
   62000   0.50265532  -0.74107562  0.086666452   0.09946341     10.05016 
   63000   0.49155254  -0.72775979  0.086541107  0.096002171     10.01273 
   64000   0.49984436  -0.74665331   0.08680627  0.089809727    9.9865794 
   65000   0.49884498   -0.7432563  0.086560265  0.091461883    10.109277 
   66000   0.51345073  -0.73217931  0.086980184    0.1248642    10.136616 
   67000   0.50047725  -0.75156677  0.086943482  0.085982676    9.9705299 
   68000   0.50631075  -0.74571369  0.087245819   0.10088706    10.140758 
   69000   0.50203691  -0.73568942  0.086958741   0.10421442    10.097698 
   70000   0.49878827  -0.74698013   0.08691761  0.088010342    10.015551 
   71000   0.49397311  -0.73742427  0.087048941  0.090475853    10.078152 
   72000   0.50297225  -0.73923369  0.086339052   0.10145327    9.7913893 
   73000   0.50002801  -0.74856272  0.086943026  0.088312515    10.002866 
   74000   0.48944694  -0.74712052  0.086657652  0.073600043    9.9444573 
   75000   0.49596477  -0.74688011  0.086793159  0.083751285    10.179208 
   76000   0.50369947  -0.75930183  0.086759229   0.08289599    10.085251 
   77000   0.49353372  -0.74693388  0.086752383  0.080010688    9.9927509 
   78000     0.511515  -0.74418054   0.08644258    0.1094222     10.11119 
   79000    0.5001236  -0.75116308   0.08642988  0.085342366     9.830923 
   80000   0.49910215  -0.74262842  0.086782188  0.092697383    10.071306 
   81000   0.49925286  -0.74698269  0.086971682  0.088758642    10.089278 
   82000   0.50202853  -0.74387132  0.086282702  0.095343928    10.396245 
   83000   0.49995039  -0.73622809  0.086808554   0.10039625    10.071711 
   84000   0.49375097  -0.74168233  0.087229552  0.086065235     10.05083 
   85000   0.50832764   -0.7471713  0.086767978   0.10197651    9.8790756 
   86000    0.4988676  -0.75394077  0.087448462  0.081699532    9.8648125 
   87000   0.50143232  -0.74351643  0.086905231  0.095427158       9.9577 
   88000   0.48966631  -0.74787437  0.086798161  0.073315712    10.100473 
   89000   0.49516388  -0.74293542  0.086989484  0.086691125    9.8918883 
   90000    0.4943961  -0.75236198  0.087408549  0.076532137    10.105638 
   91000   0.49678165   -0.7416236  0.086740997  0.090180766     9.889276 
   92000   0.50358844  -0.75297295   0.08658563  0.088884747     10.23183 
   93000   0.49876773  -0.73932209  0.086813854  0.095533823    9.6745751 
   94000   0.49360098  -0.73920637  0.086795014   0.08788172    9.8296091 
   95000   0.50031856  -0.74148886   0.08690054  0.095779645    10.171482 
   96000   0.49974546  -0.74503321  0.086759236  0.091234454    9.8890569 
   97000   0.49870758  -0.74584924  0.086898643  0.089001254    10.271176 
   98000   0.50468334  -0.75184676  0.087470551  0.092537972     10.17938 
   99000   0.50503276  -0.74786295   0.08670704  0.096282321    10.245201 
  100000     0.503608  -0.75383856  0.087081413  0.088544249    10.074942 
  101000   0.50012661  -0.75245304  0.086743757  0.084370795    9.9903283 
  102000   0.50155642  -0.74100517  0.086872829  0.098092134    10.341605 
  103000    0.4996416  -0.74586335  0.086980493  0.090469814    10.019871 
  104000     0.502396  -0.73354964  0.086676599   0.10661062     10.19909 
  105000   0.49774663  -0.75430022  0.086914081  0.079124499    9.9276887 
  106000   0.50276591  -0.75135804  0.086805473   0.08948589    10.059826 
  107000   0.50022909  -0.74630735  0.086508593  0.090435017    10.157021 
  108000   0.50362642  -0.74011576  0.086955053   0.10216833    9.8086309 
  109000   0.50210944  -0.75494401  0.087180689  0.085290561    9.7806518 
  110000   0.49353578  -0.73632217  0.086200012  0.090073121    10.153335 
  111000   0.50851228  -0.73539771  0.087111978     0.114371     10.24797 
  112000   0.50247037  -0.73753335  0.086629889   0.10269175    10.262669 
  113000   0.49769877  -0.73979785  0.086708561  0.093349568    10.265809 
  114000   0.50699716  -0.75602146   0.08657112  0.090934057    9.8835999 
  115000   0.50167984  -0.76020976  0.086711207  0.078911033    10.184846 
  116000   0.50676181  -0.76436922  0.087090221  0.082752416    10.068885 
  117000   0.49678204  -0.72563364  0.086986981   0.10641729    9.9850314 
  118000   0.49678063   -0.7432896  0.086627464  0.088399701    10.135232 
  119000   0.49620303  -0.74623025  0.087049274  0.085014586    10.015115 
  120000   0.50739535  -0.74768594  0.086946166   0.10024182    9.7181039 
  121000   0.49755916  -0.75501959  0.086809108  0.078018984    10.133387 
  122000   0.50211819  -0.75218273  0.087083044  0.087967325    9.9191667 
  123000   0.49571025  -0.74720999  0.087114978  0.083361487     10.08532 
  124000   0.49999782  -0.74673138  0.086915794  0.090071338    10.105265 
  125000   0.50038426  -0.73913629  0.087238141  0.098568347    9.9881158 
  126000   0.50415822  -0.75892073  0.086594723  0.083800593    9.9562814 
  127000   0.50289609  -0.75318214   0.08724489  0.088296449    9.8150375 
  128000   0.50414525  -0.75117773  0.086409725  0.091339143    9.9675761 
  129000   0.50358754  -0.75710046  0.087414468  0.085584723    9.9778563 
  130000   0.50954617  -0.75102631  0.087082929   0.10026398    10.050039 
  131000   0.49892778  -0.73895521  0.087123527  0.096450419    10.014488 
  132000   0.50482667  -0.74577746   0.08713239  0.098484067    10.098328 
  133000   0.49725915   -0.7622681  0.086879537  0.070390955    9.9012955 
  134000   0.50054274  -0.74326687  0.086991535  0.094428841    9.9875496 
  135000   0.50244285  -0.74400424  0.087090904    0.0966406    10.092511 
  136000   0.50904167  -0.74232865  0.086464139   0.10758621    10.135932 
  137000   0.50704399  -0.75480104  0.086924799  0.092578386    10.092145 
  138000   0.49511118   -0.7405375  0.087139455   0.08915999    9.9036649 
  139000   0.49675012  -0.74566924  0.086897733   0.08624457      9.96534 
  140000    0.4964679  -0.73359104  0.086716939  0.097718711    10.122201 
  141000   0.49924019  -0.74412153  0.087218901  0.091848003    9.9136012 
  142000   0.50384732  -0.74784017  0.087014916  0.094835074    10.191396 
  143000    0.4994912  -0.74969151   0.08689984  0.086335439    10.003051 
  144000   0.49970284  -0.73223936  0.086751233   0.10395638    10.033681 
  145000   0.50126304  -0.74637055  0.086996968  0.092410885    9.9567546 
  146000   0.49437175  -0.75015718  0.087346276   0.07863815    10.094293 
  147000    0.5005591   -0.7489834    0.0873192  0.089064521    10.044387 
  148000   0.50063947  -0.73644172  0.086382529   0.10079006    10.000228 
  149000    0.4988142  -0.74232923  0.086817256  0.092599767    10.074666 
  150000   0.49650927  -0.74141094  0.086503439  0.089747354    9.9601757 
  151000   0.51274517  -0.74665025  0.086872123   0.10922702    10.028287 
  152000   0.50101271  -0.75548142  0.086741308  0.082668913    10.215999 
  153000   0.49405114  -0.75605825  0.086923925  0.071833887    10.023153 
  154000   0.51398126   -0.7463018  0.086574344   0.11113155    10.068121 
  155000   0.50578027   -0.7599345  0.086820116  0.085444938    9.9989991 
  156000   0.50018346  -0.73921434  0.086993385  0.097944384    9.9746871 
  157000     0.495811  -0.74135779  0.087066045  0.089315863    9.9992543 
  158000   0.50142011  -0.73447822  0.086694049   0.10423587    10.212942 
  159000   0.49611313  -0.73786178  0.087696375  0.093895341    9.9472931 
  160000    0.4999573  -0.76618731  0.086623583  0.070262434    10.063332 
  161000   0.49776509  -0.74576905  0.086729549  0.087498818    10.148074 
  162000   0.49444038  -0.76436414  0.086796503   0.06398434    10.061973 
  163000   0.49729007  -0.73930559  0.086934341  0.093454638     10.00855 
  164000    0.4982787  -0.75519318  0.086668103  0.078783545     9.891415 
  165000   0.50106895  -0.75412646  0.087109784  0.084476709    10.188113 
  166000   0.50096515  -0.75152546  0.086866238   0.08667849    10.038605 
  167000   0.50320807  -0.75635414  0.086728906  0.085076363    10.079108 
  168000   0.50331858  -0.75440816  0.086822159  0.087281334    10.074814 
  169000   0.49914113  -0.74859583  0.086653583  0.086659834    10.137416 
  170000   0.49747965  -0.74661329  0.087498415  0.086995341    10.138064 
  171000   0.49565162  -0.75511631  0.086905446  0.075157716    10.330391 
  172000   0.49415694  -0.74199272   0.08675199  0.085886156    10.092909 
  173000   0.50326667  -0.73698082   0.08675345    0.1045621    10.152793 
  174000   0.49595933  -0.75020251  0.087357359   0.08098493    9.9803574 
  175000   0.49780535  -0.74126744  0.087022039  0.092353292     10.12968 
  176000   0.49527175  -0.75060806  0.086744827   0.07893563    9.9770683 
  177000   0.49089863  -0.74172574  0.086729991  0.081244385    9.9478327 
  178000   0.50373117  -0.74354263  0.086825959   0.09876945    10.166508 
  179000   0.50155072   -0.7308901  0.086603349   0.10792918    9.8941859 
  180000   0.49655729  -0.73629465  0.086844592  0.095276827    9.9655268 
  181000   0.49686889  -0.74936701   0.08708553   0.08291273    10.142272 
  182000   0.50097871  -0.74675948  0.086674697  0.091273258     10.14093 
  183000   0.50096882  -0.74802331  0.086305192  0.089625089    10.136853 
  184000    0.5003761  -0.74633921   0.08732772  0.091442755    9.8687383 
  185000    0.4953244  -0.74501188  0.086691497  0.084557435    9.9930232 
  186000   0.51232285  -0.74986511  0.086770483   0.10527713    9.7339017 
  187000   0.50606295  -0.74799708   0.08671775  0.097703951    10.092472 
  188000    0.5014524  -0.74591729  0.087252468  0.093403643    9.8706723 
  189000   0.50034615  -0.73977526  0.086581811  0.097215893    10.044237 
  190000   0.50010986  -0.74602756  0.086966754  0.090994143    9.9832679 
  191000   0.50001112  -0.73911634   0.08721722  0.098007747    9.9491594 
  192000   0.50485392  -0.73784543  0.086514024   0.10583859    10.118952 
  193000   0.51138197  -0.74279121   0.08677523   0.11094466    9.8527931 
  194000   0.50080515  -0.74128877  0.086743911  0.096552877    9.8771516 
  195000   0.50287964  -0.74693697  0.086788974  0.094061024    10.351052 
  196000   0.49637279  -0.74863342  0.087038865   0.08285561    9.8795937 
  197000   0.50002022  -0.75238077  0.087057805  0.084597562    9.9857133 
  198000   0.50666363  -0.75117892  0.086796627  0.095501875    9.7003763 
  199000   0.50198023  -0.74700876  0.087022348  0.092873685    10.130639 
  200000   0.50650143  -0.74980228  0.087086783  0.096925408    10.144152 
Loop time of 1346.6 on 1 procs for 200000 steps with 6830 atoms

Performance: 64161.655 tau/day, 148.522 timesteps/s
82.1% CPU use with 1 MPI tasks x no OpenMP threads

MPI task timing breakdown:
Section |  min time  |  avg time  |  max time  |%varavg| %total
---------------------------------------------------------------
Pair    | 250.28     | 250.28     | 250.28     |   0.0 | 18.59
Bond    | 0.88578    | 0.88578    | 0.88578    |   0.0 |  0.07
Neigh   | 862.85     | 862.85     | 862.85     |   0.0 | 64.08
Comm    | 58.266     | 58.266     | 58.266     |   0.0 |  4.33
Output  | 0.050874   | 0.050874   | 0.050874   |   0.0 |  0.00
Modify  | 163.43     | 163.43     | 163.43     |   0.0 | 12.14
Other   |            | 10.84      |            |       |  0.81

Nlocal:    6830 ave 6830 max 6830 min
Histogram: 1 0 0 0 0 0 0 0 0 0
Nghost:    11032 ave 11032 max 11032 min
Histogram: 1 0 0 0 0 0 0 0 0 0
Neighs:    43267 ave 43267 max 43267 min
Histogram: 1 0 0 0 0 0 0 0 0 0

Total # of neighbors = 43267
Ave neighs/atom = 6.33485
Ave special neighs/atom = 0.00849195
Neighbor list builds = 19638
Dangerous builds = 16039
reset_timestep  0

write_data      eq.data

### after equilibrating, perform measurements and output to files
### enter suitable Lammps commands

compute         rg polymer gyration
fix             rg polymer ave/time 1000 1 1000 c_rg file rg.txt

dump            3 polymer custom 1000 unwrapped.txt id mol type xu yu zu
dump_modify     3 sort id

dump            3w polymer custom 1000 wrapped.txt id mol type x y z
dump_modify     3w sort id

run             200000 ### enter measurement time
Per MPI rank memory allocation (min/avg/max) = 11.59 | 11.59 | 11.59 Mbytes
Step Temp E_pair E_mol TotEng Press 
       0   0.50650143  -0.74980228  0.087086783  0.096925408    10.144152 
    1000   0.50414388  -0.73940652  0.086680215    0.1033788    9.9831702 
    2000   0.49566564   -0.7504692  0.087016928  0.079937338    10.137008 
    3000   0.50498858  -0.74415568  0.086760616  0.099976909    10.310773 
    4000   0.50696954  -0.74191633  0.086651526   0.10507817    10.187631 
    5000   0.50114672  -0.75242942  0.086306042   0.08548665    10.251891 
    6000   0.50986992  -0.74127013  0.086749226   0.11017199    10.263408 
    7000   0.50860823  -0.73904397  0.087067565   0.11082423    10.065504 
    8000    0.5031561  -0.74439387  0.087013594   0.09724337      10.1765 
    9000   0.50222198  -0.73569601  0.087107378   0.10463404    10.155677 
   10000   0.50196103  -0.74246387  0.087562006  0.097929432    10.112164 
   11000    0.5055592  -0.74082621   0.08652006   0.10392162    10.063693 
   12000   0.50075535  -0.76085658  0.087191143  0.077357608    10.099778 
   13000   0.49901311  -0.73710292  0.086974438  0.098281588    10.166735 
   14000   0.50388089  -0.74822025  0.086776015  0.094266432    10.101978 
   15000   0.50042444  -0.74459388  0.087483336   0.09341621    10.107362 
   16000   0.50094857  -0.73935881  0.086656649  0.098610682    10.025162 
   17000   0.49825453  -0.72917813  0.086623343   0.10471758    10.183833 
   18000   0.48961309  -0.74495664  0.088029714  0.077385176    10.298387 
   19000   0.50664369  -0.75315086  0.086758656  0.093462067    9.9945213 
   20000   0.50175433  -0.73710896  0.086642979   0.10205532    10.189065 
   21000   0.49816311  -0.74152303  0.087125112  0.092737349    10.045086 
   22000   0.49489997  -0.75465142  0.086391232  0.073981073    9.9737739 
   23000   0.49765738  -0.75969882  0.086990816  0.073668771    10.029349 
   24000   0.49794215  -0.74958111  0.087155661  0.084378417    10.175555 
   25000   0.49002136  -0.75606673  0.086742141  0.065599832    10.102813 
   26000    0.4972196  -0.73856981  0.087023876  0.094174263    9.8823085 
   27000   0.49988429  -0.74173481  0.086738246  0.094720083    10.098387 
   28000    0.5011078  -0.74784076  0.086545116  0.090256004    10.090984 
   29000   0.49603376  -0.73536085  0.086767788  0.095348639    9.8744587 
   30000   0.50253808  -0.75164109  0.087046876  0.089102531    10.133135 
   31000   0.49698749  -0.75618654  0.086466724  0.075652267    10.059136 
   32000   0.49359283   -0.7497002  0.086882584  0.077463222    9.9751568 
   33000   0.50277187  -0.73922602  0.086931485   0.10175285    10.109915 
   34000    0.4969153  -0.74430532  0.086740938  0.087699431    10.342177 
   35000   0.50115735  -0.74846844  0.087272357  0.090429877    10.123306 
   36000   0.50461849  -0.73805116  0.086771204   0.10553696    10.071083 
   37000    0.4971153  -0.74765551  0.086758683   0.08466694    10.295116 
   38000   0.50278061  -0.74150928  0.087224871  0.099776082    9.8890228 
   39000   0.50899945  -0.74693294  0.087036304   0.10349075    9.8447698 
   40000   0.50566833  -0.74646279  0.086942384  0.098871036    10.063776 
   41000   0.50591509   -0.7428688  0.086426472    0.1023192    10.047794 
   42000   0.50104359  -0.75104803  0.087157232  0.087564544    10.078546 
   43000   0.49252103  -0.74387585   0.08671589  0.081513427    9.8894837 
   44000   0.50415957   -0.7536365  0.086376732  0.088868871    10.061128 
   45000   0.50475014  -0.75665938  0.086976305  0.087331285     10.18562 
   46000   0.50576508  -0.73933829  0.086829077   0.10602734     10.07809 
   47000   0.50185874  -0.75537783  0.087007615  0.084307673    10.035177 
   48000   0.50225836   -0.7612369  0.086895373  0.078935715     10.27389 
   49000    0.5013341  -0.73095394  0.086770176   0.10770728    10.086839 
   50000   0.49328947  -0.74786809  0.086680963  0.078638748    9.9020844 
   51000   0.50035799  -0.75147429  0.087375008  0.086327812    10.349954 
   52000    0.5021732  -0.74110542  0.086883498  0.098927599    9.8227793 
   53000   0.49809464  -0.75080996  0.086777372   0.08299998    9.8509468 
   54000   0.50631659  -0.74059204   0.08683277   0.10560442    10.159327 
   55000   0.49544296   -0.7400292  0.086906263  0.089932705    9.6033981 
   56000   0.50523021  -0.75064565  0.086497405  0.093586107    10.048404 
   57000   0.50063797  -0.73650886  0.086570727   0.10090887    10.089296 
   58000   0.49984561  -0.74659035  0.087186528  0.090254821    10.184555 
   59000   0.50984521  -0.75366844  0.087085716  0.098073117    10.218608 
   60000   0.48818756  -0.75479171  0.086628861  0.064011277    9.9130816 
   61000   0.50577285  -0.74121504  0.086534113   0.10386727    10.033183 
   62000   0.49430167  -0.74332623  0.086918114  0.084935838     9.623176 
   63000    0.4987355  -0.74124789  0.086756315   0.09350215    10.112956 
   64000   0.50032601  -0.75428742  0.086747223  0.082838934    10.252461 
   65000   0.50896021  -0.74498628  0.086870616   0.10521287    10.069752 
   66000   0.49490762  -0.73465947  0.086678863  0.094272133    10.381314 
   67000   0.49836626   -0.7427737  0.087059803  0.091726047    10.247686 
   68000   0.50958669  -0.74433712   0.08774606   0.10767706    9.9970528 
   69000   0.49437774   -0.7326364    0.0868584  0.095680038    9.9915266 
   70000   0.49512604   -0.7452302  0.086974727  0.084324847    9.8566362 
   71000   0.49381739  -0.75036911  0.087672308  0.077920835    9.9057795 
   72000   0.50195154  -0.74202632  0.087012208  0.097802961    10.027371 
   73000   0.49981645  -0.75504254  0.086446469  0.081018829    9.9712487 
   74000   0.49544139  -0.75459198  0.087339854  0.075801147    9.8370102 
   75000   0.50663278  -0.74190307  0.086399477    0.1043343    10.118699 
   76000   0.49690129  -0.74574081  0.086777057  0.086279051    10.048973 
   77000   0.49291657  -0.75085065  0.087619331  0.076035277    10.107112 
   78000   0.50051955  -0.74921643  0.086643237  0.088096208     9.930627 
   79000   0.50184948  -0.75075623  0.086732658  0.088640438    9.8752542 
   80000   0.49386947  -0.75123256   0.08711678  0.076579969    10.085331 
   81000   0.49924569  -0.75134058  0.086886613  0.084304918    10.317197 
   82000    0.5026384  -0.73731871  0.086989105   0.10351761    10.012612 
   83000   0.51149918  -0.74193251   0.08672112   0.11192505    10.132838 
   84000   0.49070328  -0.73752198  0.086920608  0.085345789    9.9842349 
   85000   0.49798038  -0.75398255  0.086886116  0.079764767    10.217147 
   86000   0.50535342  -0.75251726   0.08647702  0.091878905    10.196903 
   87000   0.50801376  -0.75711198  0.087151609  0.091948712    10.002977 
   88000   0.50742113  -0.73564065  0.086780516   0.11216012    10.137804 
   89000   0.49257602  -0.75579221  0.086513933  0.069477578    9.9485743 
   90000   0.50933771  -0.75315237  0.087015497   0.09775783     9.894451 
   91000   0.49919306  -0.74957568  0.086789296  0.085893582    10.012777 
   92000   0.49658659  -0.74992731  0.086901241   0.08174476    10.088257 
   93000   0.50869766  -0.74664901  0.087040688   0.10332645    10.094655 
   94000   0.49764899  -0.74773606  0.087139166  0.085767301    10.180275 
   95000   0.49762786  -0.74929506  0.086801618  0.083839051     10.35524 
   96000   0.50385307    -0.751786  0.087013647  0.090896593    10.053287 
   97000   0.49786362  -0.75175434  0.086897375   0.08182913     10.19531 
   98000    0.4960158   -0.7472828  0.087217483  0.083849447    10.367139 
   99000   0.49651553  -0.74362276  0.086928674  0.087970168    10.381515 
  100000   0.50133489  -0.74718341  0.086910463  0.091619294    10.003403 
  101000   0.49949385  -0.74783972  0.086776692   0.08806805     9.987178 
  102000    0.4953308  -0.74419388  0.086962353   0.08565588    9.9088349 
  103000   0.49456185  -0.74408452  0.086641376  0.084291009    10.137623 
  104000   0.50116895   -0.7457028  0.087012629  0.092953187     10.07624 
  105000   0.49760319  -0.73743368  0.086689093  0.095550918     10.07851 
  106000   0.50520331  -0.72661679  0.086852887   0.11793011    9.9659298 
  107000   0.49931204  -0.75628596  0.087327108  0.079899555    10.049629 
  108000   0.49982538  -0.74292209  0.086732669  0.093438878    9.9472921 
  109000   0.50188703  -0.74040015  0.086551747  0.098871916    10.194397 
  110000   0.51205319  -0.74116359  0.087278595   0.11408233    9.9875015 
  111000   0.50609765  -0.74087011  0.086447687   0.10461289    10.060279 
  112000   0.50840624  -0.74883771  0.086954937   0.10061494    10.096099 
  113000   0.49966252  -0.74713448  0.086604189  0.088853753    9.9196082 
  114000   0.50449505  -0.74911104  0.087035773   0.09455652     10.50869 
  115000   0.50165271  -0.74257087  0.086557209  0.096355226    9.8838712 
  116000   0.50107252  -0.75057704   0.08659937  0.087521059    10.232788 
  117000   0.50097225  -0.74907198  0.087120775  0.089397147    9.9977583 
  118000   0.49578519  -0.75292185  0.087201165  0.077848221    10.375746 
  119000   0.49606922  -0.74801685  0.086885808  0.082863841    9.9045407 
  120000   0.49488038  -0.75153375   0.08738809  0.078066218    10.179871 
  121000    0.5085605  -0.74610753  0.086711812   0.10333334    10.214589 
  122000   0.50305698  -0.74950852  0.086611518  0.091577987    10.196683 
  123000   0.50186547  -0.73966398  0.086837116  0.099861131    9.9161089 
  124000   0.49815406  -0.74404084  0.087350355  0.090431196    10.060831 
  125000   0.50652716  -0.73673555  0.086681966   0.10962591    10.060812 
  126000   0.50338302  -0.73622386  0.086943343   0.10568346    10.172866 
  127000   0.50398944  -0.73519606  0.086634915   0.10731233    10.272366 
  128000    0.4983332  -0.74608549  0.087108487  0.088413359    10.171248 
  129000   0.50074858  -0.75533108   0.08698414   0.08266595    10.219903 
  130000   0.49471614  -0.73644354  0.086834115   0.09235613    9.7151631 
  131000   0.50116498  -0.74015624  0.087122921  0.098604077    10.218523 
  132000   0.50572587  -0.73593405  0.086816093   0.10935978    9.9420384 
  133000   0.50284296   -0.7421606  0.087271467  0.099264879    10.065806 
  134000   0.50526901  -0.74463039  0.086957025   0.10011918    10.037958 
  135000   0.49772676  -0.74022676  0.086919757  0.093173826    9.9068192 
  136000   0.50180576  -0.74440634  0.086899776  0.095091864    10.165074 
  137000    0.5055428  -0.75340551  0.086818508   0.09161617    9.9975573 
  138000   0.50732975  -0.74677131  0.087174235   0.10128613    10.033094 
  139000   0.50044189  -0.75444909  0.086715144  0.082818992    10.128608 
  140000   0.50010579  -0.74012617  0.086816735  0.096739409    10.040217 
  141000   0.50022673  -0.75475723  0.086779823   0.08225283    10.032628 
  142000   0.50450842   -0.7407598  0.086489595   0.10238163    10.026609 
  143000   0.50137608    -0.754009  0.086769093  0.084714106    9.9457473 
  144000   0.48554701  -0.74039198  0.087474733  0.075296636    10.157161 
  145000   0.50300059  -0.74991771  0.086325879  0.090798579    10.122535 
  146000   0.50125143  -0.73861857   0.08739446   0.10054295    10.164526 
  147000   0.50599675   -0.7595181  0.087137719  0.086503613    10.300356 
  148000   0.50786525  -0.75670426  0.086925438  0.091907514    9.8088801 
  149000   0.48088534   -0.7357008  0.086525768  0.072047357    9.9611904 
  150000   0.50837237   -0.7518557  0.086728009  0.097319223    10.174782 
  151000   0.49864781  -0.74369546  0.086741209  0.090907949    10.008208 
  152000   0.50209951   -0.7436541  0.086720719  0.096105616    10.024177 
  153000   0.49474792  -0.74693718  0.086752102  0.081828147    10.050886 
  154000    0.5040504  -0.75017286  0.086523209  0.092315262    9.9207201 
  155000   0.49875013  -0.74181044  0.086700335  0.092905554    10.260119 
  156000   0.49841235  -0.75641784  0.086942994   0.07803422    10.104575 
  157000   0.50308173  -0.75492838  0.086683396  0.086267122     10.14099 
  158000   0.50041092  -0.74143755  0.086850024  0.095918959    10.077284 
  159000   0.50157044  -0.73593601  0.086941506     0.103251    10.205747 
  160000   0.50392789  -0.74745806  0.086410841  0.094733933    10.112055 
  161000   0.49531872  -0.74583831  0.087093865  0.084124857    10.042862 
  162000   0.50831246  -0.74510435  0.086730811   0.10398352    10.284833 
  163000   0.50427263  -0.75856632  0.086842793  0.084574678    10.114643 
  164000   0.49549379  -0.74853366  0.086677537  0.081275747    10.231135 
  165000   0.49641417  -0.73396702  0.086859707  0.097404922    9.8881792 
  166000   0.50254467  -0.75396725  0.086367974  0.086107359    9.9668257 
  167000   0.49137253  -0.73811507  0.086801595  0.085637399    10.027835 
  168000   0.49429869   -0.7368307  0.087473199  0.091981976    10.310779 
  169000   0.50774393  -0.74741066  0.086434795   0.10052852    10.143023 
  170000   0.50738173  -0.73109267  0.086613321   0.11648181    9.8133821 
  171000   0.50916395  -0.75086629  0.087008675  0.099776491    9.8686639 
  172000   0.49392379  -0.74735193  0.086848749  0.080274023    10.168376 
  173000   0.49700638  -0.73759048  0.086713912  0.094523854    10.052402 
  174000   0.51146615  -0.74892017  0.086701192   0.10486793    10.284524 
  175000   0.49245801  -0.76064261  0.086548656  0.064484904    9.9874671 
  176000   0.49522412  -0.73416609   0.08670477  0.095266096    10.285799 
  177000   0.50895985  -0.75637763  0.086702065  0.093652431    10.295252 
  178000   0.50287709  -0.75397476  0.086593611  0.086824044    10.165793 
  179000   0.50689496   -0.7434099  0.086802332   0.10362355    10.277398 
  180000    0.4940589  -0.75349027  0.087045697  0.074535271    10.138453 
  181000   0.50034088  -0.74351845  0.086748841  0.093631831     10.25951 
  182000   0.50003091  -0.74017815  0.086844389  0.096602788     10.15487 
  183000   0.50055545   -0.7509337  0.086284017  0.086073558    9.8757586 
  184000    0.5026033  -0.73891118  0.086911415   0.10179481    10.200665 
  185000   0.49736532  -0.74861472  0.086693492  0.084017527    10.018435 
  186000   0.50290906  -0.73388715  0.086902196   0.10726819    9.7975443 
  187000   0.50342301  -0.74689603  0.086790499   0.09491842    10.189974 
  188000   0.51014557  -0.75145394  0.086454582   0.10010696    10.215216 
  189000    0.5183262  -0.74444285  0.086962863   0.11989547    9.8257765 
  190000   0.50485472  -0.74462055  0.087196953  0.099747605    10.296132 
  191000   0.49550622   -0.7378386  0.086459827  0.091771734    10.178117 
  192000    0.4958277  -0.74171748  0.086473195  0.088388378    10.242394 
  193000   0.50551589  -0.75262952  0.086954396  0.092487694    10.254094 
  194000   0.50429766  -0.74921072  0.087462508  0.094587533    10.163786 
  195000   0.50354915   -0.7432519  0.086681463  0.098642699    10.158663 
  196000   0.49783756  -0.73326623  0.087068442   0.10044921    9.9348099 
  197000   0.49944164  -0.75002999  0.086590969  0.085613756    10.149253 
  198000   0.50281706  -0.73267221  0.087001298   0.10844425    10.095476 
  199000   0.49505692   -0.7513942   0.08701062   0.07809308    10.017119 
  200000   0.50459206  -0.73432995  0.086769003   0.10921633    10.017411 
Loop time of 1305.95 on 1 procs for 200000 steps with 6830 atoms

Performance: 66158.847 tau/day, 153.145 timesteps/s
83.7% CPU use with 1 MPI tasks x no OpenMP threads

MPI task timing breakdown:
Section |  min time  |  avg time  |  max time  |%varavg| %total
---------------------------------------------------------------
Pair    | 242.9      | 242.9      | 242.9      |   0.0 | 18.60
Bond    | 0.83462    | 0.83462    | 0.83462    |   0.0 |  0.06
Neigh   | 835.64     | 835.64     | 835.64     |   0.0 | 63.99
Comm    | 57.503     | 57.503     | 57.503     |   0.0 |  4.40
Output  | 0.08799    | 0.08799    | 0.08799    |   0.0 |  0.01
Modify  | 158.28     | 158.28     | 158.28     |   0.0 | 12.12
Other   |            | 10.7       |            |       |  0.82

Nlocal:    6830 ave 6830 max 6830 min
Histogram: 1 0 0 0 0 0 0 0 0 0
Nghost:    10944 ave 10944 max 10944 min
Histogram: 1 0 0 0 0 0 0 0 0 0
Neighs:    43343 ave 43343 max 43343 min
Histogram: 1 0 0 0 0 0 0 0 0 0

Total # of neighbors = 43343
Ave neighs/atom = 6.34597
Ave special neighs/atom = 0.00849195
Neighbor list builds = 19633
Dangerous builds = 15976

write_data      final.data
Total wall time: 0:44:12
