LAMMPS (3 Mar 2020)
# Single Chain in Solvent/CoSolvent
units		lj
atom_style	bond
boundary        p p p
timestep	0.005

pair_style      lj/cut 2.5
bond_style	fene

read_data       chain.data
  orthogonal box = (-5.77581 -5.77581 -5.77581) to (5.77581 5.77581 5.77581)
  1 by 1 by 1 MPI processor grid
  reading atoms ...
  6830 atoms
  reading velocities ...
  6830 velocities
  scanning bonds ...
  1 = max bonds/atom
  reading bonds ...
  29 bonds
  2 = max # of 1-2 neighbors
  2 = max # of 1-3 neighbors
  4 = max # of 1-4 neighbors
  6 = max # of special neighbors
  special bonds CPU = 0.00164413 secs
  read_data CPU = 0.0261059 secs

pair_coeff      1 1  1.0  1.00  1.12246
pair_coeff      1 2  0.5  0.75  1.87500
pair_coeff      1 3  1.0  0.75  1.87500
pair_coeff      2 2  1.0  0.50  0.56123
pair_coeff      2 3  1.0  0.50  0.56123
pair_coeff      3 3  1.0  0.50  0.56123

bond_coeff	1 30.0 1.5 1.0 1.0
special_bonds	fene
  2 = max # of 1-2 neighbors
  6 = max # of special neighbors
  special bonds CPU = 0.0011251 secs

set             atom 4791*6830 type 3
  2040 settings made for type

group polymer 	type 1
30 atoms in group polymer
group solvent 	type 2
4760 atoms in group solvent
group cosolvent type 3
2040 atoms in group cosolvent

velocity        all create 0.5 1337 dist gaussian

### add suitable fix(es) for time integration and thermostatting
fix             1 all nve
fix             2 all langevin 0.5 0.5 1.0 4129571

thermo          1000
run     	200000 ### enter equilibration time
Neighbor list info ...
  update every 1 steps, delay 10 steps, check yes
  max neighbors/atom: 2000, page size: 100000
  master list distance cutoff = 2.175
  ghost atom cutoff = 2.175
  binsize = 1.0875, bins = 11 11 11
  1 neighbor lists, perpetual/occasional/extra = 1 0 0
  (1) pair lj/cut, perpetual
      attributes: half, newton on
      pair build: half/bin/newton
      stencil: half/bin/3d/newton
      bin: standard
Per MPI rank memory allocation (min/avg/max) = 8.586 | 8.586 | 8.586 Mbytes
Step Temp E_pair E_mol TotEng Press 
       0          0.5  -0.72856142  0.086324675   0.10765345    10.091603 
    1000   0.50739579  -0.72872867  0.087303401   0.11955698    10.470338 
    2000   0.49796176  -0.72553235  0.086996508   0.10829745    10.095999 
    3000   0.49723427  -0.71633008  0.087003028   0.11641514    10.191575 
    4000   0.49828421  -0.71544808  0.086582957   0.11845177    10.155316 
    5000    0.4966975  -0.71734645  0.087072373   0.11466309    10.066195 
    6000   0.49950164  -0.74000736   0.08666431  0.095799714    10.209108 
    7000   0.49678605  -0.73224562   0.08723473   0.10005908    9.9145939 
    8000   0.49945145  -0.72590838  0.086887564   0.11004668    10.298213 
    9000   0.50687882   -0.7243397  0.087106601    0.1229738    10.319033 
   10000   0.48994065  -0.70933423  0.086817371   0.11228652    10.280747 
   11000   0.49837744  -0.72456116  0.086915786   0.10981133     10.01563 
   12000   0.50155544  -0.73414143  0.086752767   0.10483434    10.038614 
   13000   0.50121418  -0.73359026  0.087059324   0.10518026    10.243502 
   14000   0.50398793  -0.72784618  0.086396731   0.11442175    10.195039 
   15000   0.49538063   -0.7246142  0.087162156   0.10551011    10.014369 
   16000   0.50001843  -0.73012997  0.086628566   0.10641643    10.086294 
   17000   0.49529927  -0.72170088  0.086906019   0.10804527     9.902583 
   18000   0.50205167  -0.71927444  0.086633872   0.12032668    10.206019 
   19000   0.50000197  -0.73043548   0.08720226   0.10665992     10.09128 
   20000   0.49636903  -0.73169514  0.087169293   0.09991869    10.147173 
   21000   0.50430943  -0.73020593  0.086610524   0.11275798    10.514561 
   22000   0.49704779  -0.72200203  0.086827196   0.11028769    9.9136676 
   23000   0.50698654  -0.72359652  0.086824795   0.12359675    10.104975 
   24000   0.49772745  -0.73789643  0.086783631  0.095369057    10.000157 
   25000   0.49860781  -0.73121866  0.086900809   0.10348436     9.888366 
   26000   0.50323345  -0.72284269  0.086577925   0.11847489    9.7151236 
   27000   0.50240422  -0.72957668  0.086907489   0.11082681    9.8931512 
   28000   0.50253696  -0.73163294  0.086946161    0.1090083    10.175958 
   29000   0.51057056  -0.72582002  0.087077832   0.12700152    10.121188 
   30000   0.49364506  -0.73543043  0.087168697  0.092097445    9.9803577 
   31000   0.49544584  -0.74521184  0.087579863  0.085427978    10.304441 
   32000   0.49984721  -0.72640279  0.087030362   0.11028862    9.9922339 
   33000   0.49296979  -0.72309914  0.087094331    0.1033416    9.9748684 
   34000   0.50339102  -0.72530645  0.087120142   0.11678967    10.106331 
   35000    0.4968845  -0.72307264  0.087113553   0.10925853    10.224819 
   36000   0.49932569  -0.72389831  0.087068831   0.11204939    10.350247 
   37000   0.49629505  -0.72111193  0.087194221   0.11041587    9.9503873 
   38000   0.49634107  -0.74068262  0.086904275  0.090624252    10.191914 
   39000   0.50336829  -0.74665261   0.08678667  0.095075939    10.263755 
   40000   0.50490093  -0.74023188  0.086841006   0.10384964    9.9175834 
   41000   0.48863618   -0.7187411  0.087006268   0.10111213    9.9864936 
   42000   0.49981211  -0.73683901  0.086772872  0.099542258    10.134846 
   43000   0.50133223  -0.73243514  0.086331723   0.10578482    9.9346752 
   44000   0.50430847  -0.72001243  0.087185664   0.12352518    10.049087 
   45000   0.50215845  -0.72972477  0.087307142   0.11070977    10.174485 
   46000   0.50144945  -0.72909707  0.086818808   0.10978579    10.172683 
   47000   0.50172947  -0.72693052  0.086460821   0.11201432    9.8187411 
   48000   0.49617224  -0.73047827  0.086872617   0.10054374    9.8440861 
   49000   0.49572612  -0.72904512  0.086947019    0.1013822    10.106926 
   50000   0.49497755  -0.71393124  0.086789363   0.11521574    10.083694 
   51000   0.50959638   -0.7331962  0.086692899   0.11777935    10.096463 
   52000    0.4962618  -0.71931816   0.08734883   0.11231438    10.024481 
   53000   0.51385071  -0.72913204  0.087016349   0.12854752     10.24075 
   54000   0.49503434  -0.73610216  0.086888951  0.093229591    10.106805 
   55000   0.50323991  -0.72989675  0.087198451   0.11205104    10.110934 
   56000   0.49983657  -0.72506594  0.086466453   0.11104559    10.019703 
   57000   0.49843363  -0.72917346  0.087193536   0.10556106    10.077015 
   58000   0.50059596  -0.74000211  0.086579532  0.097361426    10.092904 
   59000   0.49330905  -0.72456611  0.086776086    0.1020652    10.126624 
   60000   0.49526867  -0.72553017  0.086994237    0.1042583    9.9555674 
   61000   0.50400264  -0.73124631  0.086645682   0.11129265    10.127316 
   62000   0.50497548  -0.73531144  0.086913819    0.1089547     10.00741 
   63000   0.49914978  -0.74217161   0.08701895  0.093462389    10.055141 
   64000   0.50647624  -0.73263466  0.086853529     0.113822    10.278373 
   65000   0.50463803   -0.7350812  0.087008687   0.10877371     10.02311 
   66000   0.50591187  -0.75100528  0.086480482  0.094231906    10.250683 
   67000    0.4960099  -0.73049303  0.087280478   0.10069336    10.285472 
   68000   0.50612454  -0.73606887  0.087108671   0.11011546    9.9878652 
   69000   0.49738229  -0.72916186  0.086561375   0.10336372     10.20614 
   70000   0.50320888  -0.73421148  0.086493636   0.10698495    10.135178 
   71000   0.50249561  -0.74244738  0.087384084  0.098569762    10.117574 
   72000   0.50297127  -0.73136111  0.086528923   0.10951425    10.014925 
   73000   0.50134153  -0.72979556  0.086772056   0.10887868    9.8459713 
   74000   0.50085455  -0.73947429  0.087066514  0.098764051    10.174581 
   75000   0.51021543  -0.73065886  0.087241156   0.12179339    10.085976 
   76000   0.50495824  -0.73060658  0.086556906   0.11327678    10.135431 
   77000   0.50807759  -0.73496858  0.087033784      0.11407    10.170057 
   78000   0.50030891  -0.74070495  0.086779231  0.096427765      9.93893 
   79000   0.50226806  -0.74186557  0.087198782  0.098624994    10.086359 
   80000   0.50229302  -0.71654707  0.086912226   0.12369437    10.177971 
   81000   0.49327033  -0.73531555  0.086752863  0.091234479    9.9627627 
   82000    0.5044569   -0.7387056  0.086605125   0.10447409    10.032321 
   83000   0.49299378   -0.7210743  0.086502971   0.10481106    10.027511 
   84000   0.49880447  -0.72808452  0.086898844   0.10691148    10.159142 
   85000   0.50680747  -0.73670446   0.08758797   0.11098342    10.038497 
   86000   0.50378376  -0.72473448  0.086997469     0.117828    9.9460737 
   87000   0.49965374  -0.73850902   0.08668166  0.097543518    10.271367 
   88000   0.50175224  -0.73464692  0.086565831   0.10443709    10.120719 
   89000   0.49987286  -0.72573439  0.087380534   0.11134566    10.283466 
   90000   0.49933957  -0.73828676  0.087296326  0.097909257    9.8785222 
   91000   0.49968733  -0.73328401  0.087026049    0.1031633    10.074896 
   92000   0.49769851  -0.72926215   0.08738197   0.10455829    9.7313183 
   93000   0.50997515  -0.73342466  0.087119229   0.11854528    10.032102 
   94000    0.4941433  -0.72974896     0.086771  0.098128459    9.9416338 
   95000   0.49314839  -0.72552572  0.087050322   0.10113889    10.201157 
   96000   0.50208437  -0.72540643  0.086929128   0.11453898    10.305445 
   97000   0.50593547  -0.74119781  0.087197974   0.10479225    9.9139664 
   98000   0.51134829  -0.74224881   0.08736957    0.1120309    10.125374 
   99000   0.49904314  -0.72144658  0.086550707   0.11355923     9.925775 
  100000   0.49159296  -0.74302828  0.086491459  0.080744658     10.01624 
  101000   0.49889978  -0.73345127  0.086545085   0.10133391    9.9966606 
  102000   0.50813384  -0.74137038  0.086643812    0.1073626    10.068726 
  103000   0.50017014  -0.72677473  0.086588592   0.10995923    10.120329 
  104000   0.50022768  -0.73489432   0.08695957   0.10229692    9.9696523 
  105000   0.49126602   -0.7359735    0.0869072  0.087724839    10.238013 
  106000   0.49889148  -0.72238485  0.086906959   0.11274976    10.087831 
  107000   0.49888886  -0.72701749   0.08710461   0.10831083    10.354228 
  108000   0.50123381  -0.71826561  0.086735976     0.120211    10.288027 
  109000   0.50623644  -0.73979735  0.086661404   0.10610753    9.9709575 
  110000   0.50092395  -0.73970069  0.086640342  0.098215564    10.154196 
  111000   0.49830948  -0.73088047  0.086299821   0.10277414    10.081537 
  112000   0.48964187  -0.73367216  0.086814383  0.087497495    10.058418 
  113000   0.50212162  -0.72118919   0.08679268   0.11867565    9.9955227 
  114000   0.50132961  -0.73998274  0.086718072   0.09861964     10.04044 
  115000   0.50138828  -0.72889513  0.086992555   0.11006973    10.364988 
  116000   0.50323376  -0.72556786  0.087053381   0.11622564    10.016014 
  117000   0.49424685  -0.73537098  0.087149913  0.093040663    9.9340493 
  118000   0.49802056  -0.74066669  0.086818527  0.093073297    10.202682 
  119000   0.50005338  -0.73980798  0.087192227  0.097354495     9.911598 
  120000   0.49739599  -0.72321594  0.086521426   0.10929023    10.029403 
  121000   0.49794023  -0.73083868  0.087247511   0.10320981    9.9510625 
  122000   0.49626227  -0.71276398   0.08675388   0.11827431    10.185928 
  123000   0.50733628  -0.73869769  0.086620421   0.10881573     10.10437 
  124000   0.49461185  -0.72609412  0.086885534   0.10260057     9.931286 
  125000   0.50293794  -0.74048075   0.08703474   0.10085045     10.40295 
  126000   0.49854189  -0.73001405  0.086702415    0.1043917    10.068507 
  127000   0.49918537  -0.73420383  0.086582307    0.1010469    10.025623 
  128000   0.51116524  -0.72805727  0.086706857   0.12528519    10.018714 
  129000   0.50167429  -0.74015849  0.086900841  0.099143609    10.117712 
  130000   0.50334028   -0.7364577  0.086879683   0.10532187    10.186437 
  131000   0.50401884  -0.72529075  0.087269063   0.11789588    9.9861565 
  132000   0.49837883  -0.73305972  0.086769369   0.10116844    9.9673837 
  133000   0.49204425  -0.73563613  0.086827043  0.089149226    10.082561 
  134000    0.5022679  -0.71453927  0.086970389   0.12572266    10.094638 
  135000   0.49447706  -0.73687863   0.08638392  0.091112289    9.9796925 
  136000   0.50236582  -0.73362789  0.086609845   0.10642036    10.210892 
  137000   0.50126292  -0.73350514  0.087132689   0.10541185    10.268706 
  138000   0.50790741  -0.72738349   0.08682636   0.12119244    10.112405 
  139000   0.49913383  -0.72646336   0.08690224   0.10903001    9.9504159 
  140000   0.50045137    -0.742179  0.087177765  0.095565913    10.134935 
  141000   0.50542737  -0.73037996  0.086928525   0.11457862    10.129676 
  142000   0.49153586  -0.74061058  0.086745952  0.083331207    10.368325 
  143000   0.50049647  -0.73235012  0.086717789   0.10500246    10.208607 
  144000   0.49760003  -0.73237461  0.086607492   0.10052364    9.9944055 
  145000   0.49993016  -0.72809304  0.086968664   0.10866107    10.290741 
  146000   0.50326976   -0.7232079  0.086633668   0.11821987    10.187443 
  147000   0.49574747  -0.72108595  0.086932543   0.10935892    9.9663929 
  148000   0.49871485  -0.72500608  0.087076957   0.11003362    10.135102 
  149000   0.49756192  -0.74552423  0.086874436  0.087583806    10.131195 
  150000   0.50939707  -0.72936469  0.087285112   0.12190415    9.8276927 
  151000   0.50067169  -0.73557143  0.087005014   0.10233115    10.098345 
  152000   0.49908965  -0.72332018    0.0866706   0.11187528    10.118585 
  153000   0.49629956  -0.72914294  0.086908056   0.10210547      9.98433 
  154000   0.50647255  -0.73625794  0.087187908   0.11052756    10.333686 
  155000   0.50751086  -0.72947996  0.086778778   0.11845364    10.150165 
  156000   0.49218246   -0.7327586  0.086516753  0.091923752    9.9635216 
  157000   0.49736014  -0.72839036   0.08687787    0.1044185    10.223218 
  158000   0.49953986  -0.72538907  0.087368054   0.11117906    9.9786407 
  159000   0.50796877  -0.72023209  0.086704471   0.12831397    9.9518822 
  160000   0.50045175  -0.72300769   0.08691545   0.11447547    10.070308 
  161000   0.49675558  -0.73232087  0.086935998  0.099639405    10.001238 
  162000   0.50034045  -0.72179892  0.087209521   0.11581138    10.078556 
  163000   0.49569206  -0.73009329  0.086577778  0.099913716    10.174237 
  164000   0.50550134  -0.73196814  0.086501785   0.11267464    9.9751814 
  165000   0.50298552  -0.72755352  0.087026466   0.11384077    10.089668 
  166000   0.49633486  -0.72102199  0.087331625   0.11070292    10.213718 
  167000   0.49658392  -0.72348277  0.086962521   0.10824657     9.925246 
  168000    0.4924733  -0.73501635  0.086953421  0.090538859    10.043484 
  169000   0.50164159  -0.72222709  0.086908793   0.11703391    10.169734 
  170000   0.50083444  -0.72590257  0.086772994    0.1120121    10.003066 
  171000    0.5008548  -0.73465467  0.086559336   0.10307687    10.254806 
  172000   0.49211056  -0.72745724  0.086695872  0.097296402    9.9529567 
  173000   0.50400548  -0.71343019  0.087060467    0.1295278    9.9233272 
  174000   0.50401158  -0.72061569  0.086769803    0.1220608     10.39813 
  175000   0.50059547  -0.74574872  0.086898229  0.091932772    9.8448533 
  176000   0.48824835  -0.72903774  0.086883739  0.090111295    9.8761209 
  177000   0.49782465  -0.71189514  0.087025329   0.12175783    10.214854 
  178000   0.50044313  -0.75086959  0.086850586  0.086535789    10.193175 
  179000   0.49847634  -0.74446855  0.087161516  0.090297994    10.308308 
  180000   0.49103578  -0.72419267  0.086521026  0.098774194    9.9801913 
  181000   0.49813694  -0.72821912  0.086605138   0.10548203    9.9601562 
  182000     0.496821  -0.72683585   0.08683414   0.10512068    10.004041 
  183000   0.50528347  -0.73429964  0.086805675   0.11032027    10.190029 
  184000   0.49472915  -0.72485152  0.086762325   0.10389588    10.272236 
  185000   0.49646918  -0.71729149  0.086780285   0.11408353    9.9520856 
  186000   0.50576687  -0.73893777  0.086617542     0.106219    10.182511 
  187000   0.50107187  -0.74887964  0.086919284  0.089537402    10.020266 
  188000   0.50448444  -0.73179647   0.08662791    0.1114473    10.233255 
  189000   0.49968674  -0.74606528  0.086883106  0.090238194    9.9846866 
  190000   0.49712091  -0.72314602  0.086817776   0.10924395    10.091423 
  191000   0.50150069  -0.73897368  0.087101483    0.1002687     9.982771 
  192000   0.50683115   -0.7321258  0.087339728   0.11534935     10.11549 
  193000   0.50325573  -0.71793307  0.087172244   0.12401226    10.057566 
  194000   0.49816563  -0.73955985  0.086815735  0.094394922    10.205724 
  195000   0.50620857  -0.72750679   0.08726636   0.11896125    10.304167 
  196000   0.50119799  -0.73710933  0.086411028   0.10098861    10.080716 
  197000   0.49089392  -0.72766783  0.086486132  0.095051382    10.137052 
  198000   0.49838393  -0.71945443  0.086677239   0.11468925    10.178062 
  199000   0.49810948   -0.7286776  0.086578733   0.10495596    10.050014 
  200000   0.49186327  -0.72785652  0.086857985  0.096688344    10.225167 
Loop time of 1253.68 on 1 procs for 200000 steps with 6830 atoms

Performance: 68917.127 tau/day, 159.530 timesteps/s
84.9% CPU use with 1 MPI tasks x no OpenMP threads

MPI task timing breakdown:
Section |  min time  |  avg time  |  max time  |%varavg| %total
---------------------------------------------------------------
Pair    | 232.05     | 232.05     | 232.05     |   0.0 | 18.51
Bond    | 0.84164    | 0.84164    | 0.84164    |   0.0 |  0.07
Neigh   | 801.86     | 801.86     | 801.86     |   0.0 | 63.96
Comm    | 54.812     | 54.812     | 54.812     |   0.0 |  4.37
Output  | 0.052538   | 0.052538   | 0.052538   |   0.0 |  0.00
Modify  | 153.77     | 153.77     | 153.77     |   0.0 | 12.27
Other   |            | 10.3       |            |       |  0.82

Nlocal:    6830 ave 6830 max 6830 min
Histogram: 1 0 0 0 0 0 0 0 0 0
Nghost:    11062 ave 11062 max 11062 min
Histogram: 1 0 0 0 0 0 0 0 0 0
Neighs:    43246 ave 43246 max 43246 min
Histogram: 1 0 0 0 0 0 0 0 0 0

Total # of neighbors = 43246
Ave neighs/atom = 6.33177
Ave special neighs/atom = 0.00849195
Neighbor list builds = 19636
Dangerous builds = 16013
reset_timestep  0

write_data      eq.data

### after equilibrating, perform measurements and output to files
### enter suitable Lammps commands

compute         rg polymer gyration
fix             rg polymer ave/time 1000 1 1000 c_rg file rg.txt

dump            3 polymer custom 1000 unwrapped.txt id mol type xu yu zu
dump_modify     3 sort id

dump            3w polymer custom 1000 wrapped.txt id mol type x y z
dump_modify     3w sort id

run             200000 ### enter measurement time
Per MPI rank memory allocation (min/avg/max) = 11.59 | 11.59 | 11.59 Mbytes
Step Temp E_pair E_mol TotEng Press 
       0   0.49186327  -0.72785652  0.086857985  0.096688344    10.225167 
    1000   0.50133611  -0.72849366  0.086790824   0.11019122    9.9070261 
    2000   0.49634905    -0.732699   0.08659236  0.098307925    10.324258 
    3000   0.50436961  -0.72623128  0.086964587   0.11717695    10.188365 
    4000   0.49821617  -0.73794703  0.087021219  0.096289028    9.9052836 
    5000   0.49597368  -0.72454261  0.086794663   0.10610364    10.140911 
    6000   0.50703262  -0.72685541  0.087648596   0.12123076    10.200121 
    7000    0.5009144  -0.73548064   0.08645112   0.10223207    10.203524 
    8000   0.50020057  -0.73901002  0.086960282  0.098141266    10.195237 
    9000   0.50019323  -0.72686806  0.087315516   0.11062745    10.206855 
   10000   0.49611166  -0.73692552  0.086782555  0.093915574    10.121759 
   11000   0.50757493  -0.73735092  0.086424898    0.1103249    10.325783 
   12000   0.49660474  -0.73395969  0.086823963   0.09766232     10.14433 
   13000   0.49900072  -0.72410241  0.086580181   0.11086925    10.268009 
   14000   0.50011412  -0.72278059  0.086555654    0.1138364     10.14283 
   15000   0.50064915  -0.72980783   0.08678341   0.10783935    10.192484 
   16000   0.49998859  -0.72867198   0.08658398   0.10778507    10.049832 
   17000   0.49752461  -0.73024823  0.086731634   0.10266106    10.058306 
   18000   0.49669629  -0.71564786   0.08670139   0.11598888    10.036424 
   19000   0.50237096  -0.72745209  0.086938188    0.1129322     10.17219 
   20000   0.49460786  -0.73121972  0.086533933  0.097117376    10.208029 
   21000     0.505303  -0.72997611  0.086728182   0.11459561    10.233829 
   22000   0.49918402   -0.7329463  0.087129003   0.10284909    10.454222 
   23000   0.51134814  -0.71991346  0.087014855   0.13401131    9.9167219 
   24000    0.5080358  -0.74170117  0.087224688   0.10746564    10.157131 
   25000   0.50619451  -0.72357537   0.08712313   0.12272836    9.9916136 
   26000   0.50665921   -0.7481487  0.086830528  0.098559375    10.393269 
   27000   0.50714537  -0.73410613  0.086938062   0.11343861    9.9234289 
   28000   0.50033474  -0.73332836  0.086490176   0.10355405    10.159506 
   29000   0.50279429  -0.73145638  0.087177609   0.10980224    10.018606 
   30000   0.49768262  -0.73000454   0.08692701    0.1033371    10.237892 
   31000   0.49871637  -0.72916368  0.086536543    0.1053379    9.9961514 
   32000   0.50537682  -0.74013868  0.086787639    0.1046032    10.185009 
   33000   0.50150395  -0.72435994  0.086773421   0.11455927    10.052679 
   34000   0.49592802  -0.72566796  0.086863052    0.1049782    10.063638 
   35000   0.49007425  -0.72639389  0.086604558  0.095214416    10.244119 
   36000   0.49746683  -0.73529296  0.086709277  0.097507309    10.053348 
   37000   0.49378449  -0.73141685  0.086968523  0.096119968    10.044962 
   38000   0.51832964  -0.72686154  0.086679788   0.13719888     9.993824 
   39000   0.49075951  -0.72409203  0.086475314  0.098414761     10.31241 
   40000    0.4966711  -0.73284588  0.086538805  0.098590499    9.9557332 
   41000   0.51237885  -0.74026947  0.087480012   0.11566629    10.146068 
   42000   0.49482468  -0.73389638  0.086645248  0.094877212    10.139744 
   43000   0.49083239  -0.74334421  0.086754891  0.079551479    10.150049 
   44000   0.49722103  -0.74863865  0.086939771  0.084023469    10.214903 
   45000   0.49634999   -0.7342981    0.0870837  0.097201577    9.9697803 
   46000   0.50115558  -0.73381904  0.086394473   0.10419874    10.032704 
   47000   0.50113841  -0.72210242   0.08746616   0.11696129    9.9921646 
   48000   0.49532327  -0.73910147   0.08741332  0.091187979     10.07707 
   49000   0.51348433  -0.73112709  0.086911176    0.1258978    10.052497 
   50000   0.48613589  -0.72518167  0.086862002  0.090777397    10.028198 
   51000   0.49018477   -0.7176953  0.087228437   0.10470264     10.03078 
   52000   0.49192346  -0.73418616   0.08668881  0.090279802    10.136687 
   53000   0.49386127  -0.73348164  0.086929227  0.094131028    9.9610421 
   54000   0.49951497  -0.72817832  0.087336181    0.1083206    10.214071 
   55000   0.49700835  -0.73268623  0.087090845  0.099807992    10.120456 
   56000   0.50063256  -0.72749473   0.08689352   0.11023768    10.162224 
   57000   0.51483846  -0.72820482  0.086820157   0.13075996    10.154617 
   58000   0.50292475  -0.72362882  0.086776685   0.11742454    10.047318 
   59000   0.50633874   -0.7310038  0.086445742   0.11483885    10.185911 
   60000   0.50088817  -0.73619467  0.087172865   0.10220045    10.205109 
   61000   0.49846791  -0.72263784  0.086625102   0.11157965    10.101285 
   62000   0.49690224  -0.73798136  0.086808664  0.094071543    10.077561 
   63000   0.50300229  -0.73735125  0.086414836   0.10345656    9.9861197 
   64000   0.50778904  -0.73531232  0.086960621   0.11322034    10.167657 
   65000   0.49539813  -0.73312856  0.086618523  0.096478363    10.240649 
   66000   0.49598646  -0.75423354  0.086516983  0.076154209    10.137748 
   67000   0.50000138  -0.73249556  0.086879607   0.10427631    10.039876 
   68000   0.50525766  -0.73203144    0.0866783   0.11242239    10.235822 
   69000   0.50294265   -0.7252181   0.08648984   0.11557525    9.9936601 
   70000   0.50143107  -0.73788093  0.086750421   0.10090598    9.9194341 
   71000   0.51053016  -0.73045761  0.086732453   0.12195796    10.125889 
   72000   0.49653743   -0.7224972   0.08738893   0.10958883    9.9929155 
   73000   0.49373583  -0.72437601  0.086706582   0.10282588    10.114505 
   74000   0.49682901  -0.73648477  0.086800088  0.095449721    10.227187 
   75000   0.49264636  -0.73112008   0.08675577  0.094497033    10.091158 
   76000   0.49914799  -0.72967822  0.086793623   0.10572777    9.9230915 
   77000   0.49700168  -0.72905887  0.086802588   0.10313709    10.144455 
   78000   0.50250276  -0.72042093   0.08703321   0.12025605    10.248666 
   79000   0.49620135  -0.72797418  0.086754954   0.10297383    10.002088 
   80000   0.49649976  -0.72424846  0.086874015   0.10726615    10.092433 
   81000   0.49620406  -0.73922782   0.08681731  0.091786612    10.077019 
   82000   0.50808751  -0.73456353  0.086572349    0.1140285    10.007225 
   83000   0.50134678  -0.71876503  0.087173114   0.12031815    10.291116 
   84000   0.49330163  -0.73116962  0.087082597  0.095757082    9.9544476 
   85000   0.50110781  -0.73393461  0.086837179   0.10445422    10.077147 
   86000   0.49769045  -0.72196273    0.0871214   0.11158504    9.9348951 
   87000   0.49982153  -0.73522613  0.086502764   0.10089916     9.931096 
   88000    0.4934978  -0.73433298  0.087062193  0.092867536    9.9666424 
   89000   0.49344499  -0.73767163   0.08687047  0.089257957    10.166968 
   90000   0.49523472  -0.72663001  0.087165794    0.1032791    10.002216 
   91000   0.50017365  -0.73645731  0.087073381   0.10076671    10.219336 
   92000   0.49780054  -0.72846197   0.08662508    0.1047546     10.16819 
   93000   0.49933901  -0.73408572  0.087145467    0.1019586    10.372394 
   94000   0.50191277  -0.72187292  0.086896987   0.11778299    10.108669 
   95000    0.5026983  -0.72333213  0.086969196   0.11757412    10.190863 
   96000   0.50234451  -0.73935825  0.086780763   0.10082895    10.039566 
   97000   0.48562402  -0.72889909  0.086652535  0.086082814    10.211807 
   98000    0.5014919  -0.73064665  0.087065984   0.10854705     10.19329 
   99000   0.50100097  -0.72726428    0.0867701   0.11089725    10.034921 
  100000   0.50218916   -0.7229488  0.086997318   0.11722198    10.200374 
  101000    0.5044274  -0.73654812  0.086536399   0.10651861    10.004285 
  102000   0.50091455  -0.73906257  0.086532279  0.098731529    10.188724 
  103000   0.49190593  -0.73115339  0.086798896  0.093396365    10.177378 
  104000   0.49551895  -0.71967184  0.086509296   0.11000706    10.108934 
  105000   0.49594907  -0.72932831  0.086705315   0.10119169     9.906195 
  106000   0.49730453  -0.73665626  0.086364699  0.095556013    9.8662306 
  107000   0.50583871  -0.73178961  0.087007457   0.11386482    9.8285011 
  108000   0.49526354  -0.72374937  0.087372926    0.1064101    9.9524009 
  109000   0.50411348  -0.73877624  0.086899655   0.10418292    10.294316 
  110000   0.49838724  -0.74068406  0.086714271  0.093501612    10.289182 
  111000   0.50434284  -0.72589789  0.086707018   0.11721263    10.154911 
  112000   0.51057215  -0.73333792   0.08679092    0.1191991    10.278627 
  113000   0.49804248  -0.73295829  0.086799425   0.10079547    10.175993 
  114000   0.49248323  -0.73899676  0.086558244  0.086178164    10.129038 
  115000   0.51185445  -0.72690781  0.086848919   0.12761038    10.144907 
  116000   0.48600774  -0.73110438  0.086724814  0.084525314    10.135502 
  117000    0.5036979  -0.73075821  0.086934331   0.11161235    10.134917 
  118000   0.50492782  -0.72898816   0.08752049   0.11581317    10.049913 
  119000   0.49759866  -0.74204613  0.087009816  0.091252395    10.173221 
  120000   0.49627059  -0.74007967  0.086685119  0.090902338     10.18403 
  121000   0.50582399  -0.73454728  0.086568936   0.11064655    9.8739804 
  122000    0.5004714  -0.73410388  0.086643866   0.10313718    9.8709704 
  123000   0.50252175  -0.73442898  0.086992351   0.10623563    10.198838 
  124000   0.49792508  -0.74490966  0.087311763  0.089180364    9.7942215 
  125000    0.4995061  -0.75119473  0.086850064  0.084804781    9.8162865 
  126000   0.49963982  -0.74472608  0.086359989  0.090983905    10.248041 
  127000   0.50217282  -0.73676086  0.086744018   0.10313209    10.099168 
  128000   0.49901818  -0.73346742  0.086686505   0.10163676    10.022226 
  129000    0.5047666   -0.7226366  0.086786189   0.12118863    10.125965 
  130000   0.50266386  -0.73408004  0.087448445    0.1072538     10.29617 
  131000   0.49814986  -0.74709777  0.087077841  0.087095464    9.7676054 
  132000   0.50537414  -0.73412878  0.087379425   0.11120087    9.9630695 
  133000   0.49598166  -0.73865703  0.086806372  0.092012905    10.161775 
  134000   0.50294854  -0.73370428   0.08700838   0.10761646    9.9848344 
  135000   0.49439169  -0.71463108  0.086945299   0.11379318    10.203406 
  136000   0.50116979  -0.72676612  0.087429811    0.1123083         10.6 
  137000   0.49828553  -0.72245422  0.086592841   0.11145749    10.049186 
  138000   0.50570023  -0.73252207  0.086324545   0.11224175    10.298115 
  139000   0.48993565  -0.73858782  0.086465316  0.082673373    9.9664282 
  140000   0.48908164  -0.74979553  0.087567242  0.071286761    10.173583 
  141000    0.4959644  -0.72450798  0.087003287   0.10633298    10.108461 
  142000   0.49851568  -0.73117311    0.0869677   0.10345862    10.083158 
  143000   0.49681203  -0.72574473  0.086772233   0.10613645    9.9664253 
  144000   0.49569455  -0.72466204  0.087438422   0.10620934    10.143717 
  145000   0.49632962  -0.73091623  0.087587556   0.10105675    10.116541 
  146000   0.49696219  -0.71728598  0.087055647   0.11510381    9.9415312 
  147000   0.50257931    -0.752754  0.086353622  0.087358217    10.092781 
  148000   0.50351337   -0.7431245  0.086982146  0.099017123    10.060223 
  149000   0.50651426  -0.74212517  0.086536237   0.10407122    9.8520744 
  150000   0.50343984  -0.72637072  0.086828056   0.11550653    9.9126934 
  151000   0.50089056   -0.7308692  0.087643309   0.10799995    10.148322 
  152000   0.49359981  -0.74055016  0.086568048  0.086309192    9.9360475 
  153000   0.49543573  -0.73364999  0.086715866  0.096110671    10.046576 
  154000   0.50284291  -0.74220815  0.086537235  0.098483022    10.190827 
  155000   0.50076341  -0.74071427  0.086762558  0.097083428    10.215798 
  156000   0.49818108  -0.72402784  0.086853234   0.10998761    10.039728 
  157000    0.4994727  -0.73585357  0.086974196   0.10021999    10.452683 
  158000   0.50297207  -0.73474118  0.086440147   0.10604661    9.9687202 
  159000    0.4978767  -0.73242723  0.086837754   0.10111623    10.242586 
  160000   0.50386517  -0.73505463  0.087080909   0.10771337    10.143045 
  161000   0.49954929  -0.73247277  0.086882315   0.10362377     9.911627 
  162000   0.51025501  -0.73621577  0.086835253   0.11588994    10.051888 
  163000    0.5044338  -0.74515908  0.087139575  0.098520423    10.273998 
  164000   0.49913381  -0.73567805  0.086297343  0.099210388    9.7444674 
  165000   0.49390291  -0.72463094  0.087696415   0.10381136    10.002766 
  166000   0.50215338  -0.72497211  0.086624245   0.11477192    10.266233 
  167000   0.50506993  -0.71977899  0.087148325   0.12486331    10.039551 
  168000    0.5082559  -0.73317059  0.086660434   0.11576208    10.107931 
  169000   0.50742558  -0.73656737   0.08731714    0.1117767    10.222652 
  170000   0.49959393  -0.72475954  0.087217787   0.11173942    10.067434 
  171000   0.50182203  -0.73674208  0.086565738    0.1024465    10.248989 
  172000    0.5028284  -0.72606491   0.08711746   0.11518472    10.134308 
  173000   0.50344468  -0.73631779  0.086371908   0.10511056    10.159561 
  174000   0.50156551  -0.73083984  0.086964941   0.10836321    10.201901 
  175000   0.49601917  -0.75121562  0.086937732  0.079641923    9.8762766 
  176000   0.50364602  -0.72525529  0.086765765    0.1168689    10.157391 
  177000   0.50639495  -0.74155963  0.086776253   0.10469783    10.257333 
  178000   0.50249901  -0.73896586  0.087115563   0.10178785    10.107668 
  179000   0.50066182  -0.73634887  0.086436476   0.10097038    10.031016 
  180000   0.49121636  -0.72659787  0.087436442  0.097555233    9.9240458 
  181000   0.51135994  -0.74409317   0.08720756     0.110042    10.072538 
  182000   0.49060704  -0.75226346  0.086633243  0.070172592    10.151264 
  183000   0.49470158  -0.74308725  0.086561333  0.085417806    10.201386 
  184000   0.51166164  -0.73148457  0.086486644   0.12238215    10.227297 
  185000   0.50479816  -0.73044229  0.087298433   0.11394251    10.064415 
  186000   0.50040963  -0.73920535  0.086768132  0.098067338    10.333695 
  187000   0.49839119  -0.73555288  0.086443235  0.098367686    9.9517162 
  188000   0.49629529  -0.73720943  0.086473805  0.093598319    10.001777 
  189000   0.50328878  -0.73243021  0.086686528   0.10907895     10.12385 
  190000    0.5051458  -0.73925203  0.086936738   0.10529246     10.15709 
  191000   0.49788201  -0.74217502  0.086846637  0.091385293    10.141336 
  192000   0.49778033  -0.72111692  0.086695166   0.11213943    10.178525 
  193000    0.5002849  -0.72658602  0.086650395   0.11038185     9.922629 
  194000   0.50982778  -0.72082174  0.086511892   0.13031985    9.9419502 
  195000   0.50432096  -0.73808422  0.086535264   0.10482172    9.9043401 
  196000   0.49975359  -0.72635308   0.08713132   0.11029887    9.8774214 
  197000   0.49905285  -0.72976879  0.087165361   0.10586625    9.9219396 
  198000   0.50284761  -0.71981541  0.086952351   0.12129792    10.193717 
  199000    0.4992855  -0.73549286  0.087356338   0.10068207    10.247368 
  200000   0.50470926  -0.71611717  0.086892203   0.12772808    10.076036 
Loop time of 1402.91 on 1 procs for 200000 steps with 6830 atoms

Performance: 61586.164 tau/day, 142.561 timesteps/s
80.7% CPU use with 1 MPI tasks x no OpenMP threads

MPI task timing breakdown:
Section |  min time  |  avg time  |  max time  |%varavg| %total
---------------------------------------------------------------
Pair    | 261.32     | 261.32     | 261.32     |   0.0 | 18.63
Bond    | 1.0761     | 1.0761     | 1.0761     |   0.0 |  0.08
Neigh   | 898.55     | 898.55     | 898.55     |   0.0 | 64.05
Comm    | 62.697     | 62.697     | 62.697     |   0.0 |  4.47
Output  | 0.12131    | 0.12131    | 0.12131    |   0.0 |  0.01
Modify  | 167.57     | 167.57     | 167.57     |   0.0 | 11.94
Other   |            | 11.57      |            |       |  0.82

Nlocal:    6830 ave 6830 max 6830 min
Histogram: 1 0 0 0 0 0 0 0 0 0
Nghost:    10963 ave 10963 max 10963 min
Histogram: 1 0 0 0 0 0 0 0 0 0
Neighs:    43172 ave 43172 max 43172 min
Histogram: 1 0 0 0 0 0 0 0 0 0

Total # of neighbors = 43172
Ave neighs/atom = 6.32094
Ave special neighs/atom = 0.00849195
Neighbor list builds = 19631
Dangerous builds = 15963

write_data      final.data
Total wall time: 0:44:16
