LAMMPS (3 Mar 2020)
# chain on a wall - dpd thermostat

# units, simulation style, boundaries
units		lj
atom_style	bond
boundary        p p f

# read in file
read_data       start.data
  orthogonal box = (-21 -18.1865 0) to (21 18.1865 90)
  1 by 1 by 1 MPI processor grid
  reading atoms ...
  1620 atoms
  scanning bonds ...
  1 = max bonds/atom
  reading bonds ...
  19 bonds
  2 = max # of 1-2 neighbors
  2 = max # of 1-3 neighbors
  4 = max # of 1-4 neighbors
  6 = max # of special neighbors
  special bonds CPU = 0.000263929 secs
  read_data CPU = 0.00355697 secs

# set pair potential (included DPD thermostat!)
pair_style      hybrid/overlay lj/cut 2.5 dpd/tstat 1.2 1.2 2.25 34958

pair_coeff      * * lj/cut 1.0 1.0 1.12246
pair_coeff      1 4 lj/cut 200 1.0 2.5
pair_coeff      4 4 lj/cut 0.0 0.0 0.00000

pair_coeff      * * dpd/tstat 5.0 1.1225
pair_coeff      4 4 dpd/tstat 0.0 0.0
comm_modify     vel yes

# set bonding potential
bond_style      fene
bond_coeff      1 30 1.5 1.0 1.0
special_bonds   fene
  2 = max # of 1-2 neighbors
  6 = max # of special neighbors
  special bonds CPU = 0.00020504 secs

# change timestep
timestep        0.002

#define groups
group chain 	type 1 2 3
20 atoms in group chain
group wall  	type 4
1600 atoms in group wall
group end 	type 3
1 atoms in group end

# time integration
fix		1 chain nve

# move the wall at linear velocity along x
fix             3 wall move linear 0.5 0.0 0.0

# measure extension of chain
compute         1 end reduce ave z
fix             4 end ave/time 1000 1 1000 c_1 file z.txt

compute         rg chain gyration
fix             rg chain ave/time 1000 1 1000 c_rg file rg.txt

## dump a movie if you want
#dump           1 all xyz 1000 film.xyz

dump            2 all dcd 1000 film.dcd
dump_modify     2 unwrap yes

# thermodynamic output, Nr. of time steps
thermo          1000
run             1000000
Neighbor list info ...
  update every 1 steps, delay 10 steps, check yes
  max neighbors/atom: 2000, page size: 100000
  master list distance cutoff = 2.8
  ghost atom cutoff = 2.8
  binsize = 1.4, bins = 31 26 65
  2 neighbor lists, perpetual/occasional/extra = 2 0 0
  (1) pair lj/cut, perpetual
      attributes: half, newton on
      pair build: half/bin/newton
      stencil: half/bin/3d/newton
      bin: standard
  (2) pair dpd/tstat, perpetual, copy from (1)
      attributes: half, newton on
      pair build: copy
      stencil: none
      bin: none
Per MPI rank memory allocation (min/avg/max) = 5.602 | 5.602 | 5.602 Mbytes
Step Temp E_pair E_mol TotEng Press 
       0            0  -0.39028792   0.24439395  -0.14589397 -0.0084294926 
    1000   0.16110238  -0.52843241   0.25819937 -0.028728634 -0.004488389 
    2000   0.16570489  -0.55484589   0.27117717  -0.03526481 -0.0039893058 
    3000   0.16481727  -0.55470101   0.28019286  -0.02743485 0.0010386686 
    4000   0.16911503  -0.54969149   0.27680416 -0.019371377 -0.0052665885 
    5000    0.1571092  -0.55137021   0.29434055 -0.021511324 -0.0033899643 
    6000   0.17550995  -0.55769998   0.27099768 -0.023599883 0.00064427708 
    7000   0.14846024  -0.54554627    0.2932337  -0.02975968 -0.00034016441 
    8000   0.16486114  -0.55562861   0.28148088 -0.027008662 -0.0030393532 
    9000   0.16277407  -0.56040399   0.28589304 -0.030500559 -0.0036944795 
   10000    0.1729613  -0.55740575   0.26171742 -0.036406536 -0.0023203616 
   11000   0.16086121  -0.55479514   0.27346782 -0.040184459 -0.0012639066 
   12000   0.17267818  -0.55755766   0.26156685 -0.037133422 0.00050964694 
   13000    0.1494921  -0.54696244   0.27920468 -0.043658032 0.00050454446 
   14000   0.14712673  -0.55519298   0.29714423 -0.037494886 0.00084061861 
   15000   0.14848878   -0.5580903   0.29349149 -0.042003133 -0.00038232931 
   16000    0.1655933  -0.55543625   0.26706852 -0.040131112 0.0010174921 
   17000   0.17623328  -0.55943062   0.25492051 -0.040323362 -0.0014038126 
   18000   0.15942164   -0.5634048   0.28309957 -0.041320383 -0.0012698352 
   19000   0.16208142  -0.55234231   0.26994553 -0.039424737 -0.00091191706 
   20000   0.14601893   -0.5572152   0.29327225 -0.045049766 -0.0037447724 
   21000   0.15944274  -0.56243655   0.28017113  -0.04324895 -0.0020049852 
   22000    0.1601908  -0.55887198   0.26989259 -0.048841506 0.00082388707 
   23000   0.14720974  -0.55529643     0.284277 -0.050341136 0.00024446788 
   24000   0.15676996  -0.55661953   0.27330489 -0.048304861 3.0234663e-05 
   25000   0.15508173  -0.55963248   0.27340847 -0.053745012 -0.0019839617 
   26000   0.14982259  -0.56373431   0.28428826 -0.054850886 -0.0016740344 
   27000   0.13771227   -0.5619398   0.30337717 -0.052121728 -0.0014794252 
   28000   0.15017384  -0.56050266   0.27706928 -0.058311666 -0.0034277878 
   29000   0.14726039  -0.56396804   0.28422928 -0.058984528 -0.0018773167 
   30000   0.16289113  -0.56277155   0.26079099 -0.057794699 -0.0022319919 
   31000   0.14998098  -0.55600975    0.2667126 -0.064464546 -0.00089114798 
   32000   0.13900902  -0.56134719   0.28895546 -0.064006919 -0.0038738418 
   33000   0.14874394  -0.56041403   0.27354351  -0.06389234 -0.002573786 
   34000   0.14858674  -0.55264872   0.27408258 -0.055823621 -0.0010112035 
   35000   0.14615869  -0.55547301   0.27777104 -0.058599265 0.0011626628 
   36000   0.16447139  -0.56336959   0.25731101 -0.059503774 -0.00076982389 
   37000   0.13922107  -0.55588349   0.27930762 -0.067873173 -0.0030254627 
   38000    0.1466511  -0.55804413   0.27923107 -0.058972197 -0.0011456092 
   39000    0.1428999  -0.56147023    0.2786343  -0.06861839 -0.002088591 
   40000   0.14970432  -0.56205259   0.27091037 -0.066724364 -0.0017973248 
   41000   0.14697506  -0.55452984   0.26195335 -0.072249998 0.00070920935 
   42000   0.15339301  -0.56205513   0.25714418 -0.074963474 -0.0014859119 
   43000   0.14896218  -0.56141838   0.26128768 -0.076825362 -0.00050364419 
   44000   0.13791681  -0.55412792    0.2644104 -0.082970018 0.00053712155 
   45000   0.13950627   -0.5628211   0.27023775 -0.083453113 -0.0016569855 
   46000   0.13416589  -0.56268721   0.27694352 -0.084619088 -0.0027868452 
   47000   0.14192093  -0.56057008   0.26243646 -0.085383638 -0.0015537918 
   48000   0.12834929  -0.56353775   0.28680836 -0.084324291 -0.0032026609 
   49000   0.14282084  -0.56480338   0.26411669 -0.086587672 -0.0010942404 
   50000   0.15318782  -0.56300263   0.25375638 -0.079606356 -0.0019952397 
   51000   0.14957771  -0.56180063   0.25520084 -0.082371726 -8.2525452e-05 
   52000   0.13598747  -0.55991684    0.2717696 -0.084291956 -0.0023942249 
   53000   0.14171711  -0.56163701   0.26312885 -0.086063702 -0.0024951969 
   54000   0.12786923   -0.5617909   0.27982887 -0.090276574 0.00051294311 
   55000   0.13887917  -0.55737245   0.25937412 -0.089808165 -0.0011481106 
   56000   0.13387617  -0.56105077   0.26871842 -0.091642048 -0.0011854108 
   57000    0.1270422   -0.5596627   0.27049239  -0.09872464 -0.001860576 
   58000   0.13755562   -0.5618944   0.25565383   -0.1000345 5.9639606e-05 
   59000   0.13466706  -0.56504075   0.25863033  -0.10453452 -0.00092556757 
   60000   0.13685658  -0.55810352   0.25216701  -0.10077836 -0.0026858883 
   61000   0.13481932  -0.56264031   0.25733121  -0.10320495 -0.001465834 
   62000   0.13610009  -0.55829147   0.25470028 -0.099567079 -7.6749949e-05 
   63000   0.13200721  -0.55943615   0.26377627 -0.097771287 -0.00029092723 
   64000   0.13804536  -0.56158252   0.26084829 -0.093794018 -0.0022739811 
   65000   0.13780402  -0.55868755    0.2591256 -0.092983522 -0.0015748563 
   66000   0.13914364  -0.56023193   0.25888141 -0.092763891 -0.0026550693 
   67000   0.13522513  -0.56221898   0.26940275  -0.09010375 -0.0010596143 
   68000   0.13432874  -0.55411059   0.25968394 -0.093057924 0.0014399626 
   69000    0.1335978  -0.55764613    0.2630764 -0.094296738 -0.0029025169 
   70000    0.1267336  -0.55279019   0.26317256 -0.099634571 -0.0039230416 
   71000    0.1248178  -0.55512232    0.2613633  -0.10664788 -0.0050162466 
   72000   0.12884858  -0.55298695   0.25615961  -0.10367378 -0.0045326752 
   73000   0.12512327   -0.5515739   0.26151624  -0.10248861 -0.0048355754 
   74000   0.12791305  -0.55734404   0.25989253  -0.10570038 -0.0024446858 
   75000   0.12872559  -0.55991689   0.26378436  -0.10316333 -0.0019750728 
   76000   0.13256615   -0.5593428   0.26258363  -0.09803269 -0.0011354202 
   77000   0.12829318  -0.55357854   0.26359954 -0.097658017 -0.0014216741 
   78000   0.12410686  -0.54893427   0.26454616 -0.098342737 -0.00069745303 
   79000   0.13520884  -0.56050303   0.25847756 -0.099337395 0.0018196123 
   80000   0.13668714  -0.56318996   0.25827868  -0.10000714 -0.00082888115 
   81000   0.12945878  -0.56091499   0.26761326 -0.099233431 -0.0031619895 
   82000   0.13987847  -0.56219379   0.25185889  -0.10064672 -0.0018856048 
   83000   0.13873247   -0.5617612   0.25384898 -0.099941983 -0.0013821458 
   84000   0.12834562  -0.55867838   0.26284967  -0.10342912 -0.0041766856 
   85000    0.1275859  -0.56271633   0.27134444  -0.10011118 -0.0035486436 
   86000    0.1353121  -0.55891857   0.25675952 -0.099316188 -0.0031221117 
   87000   0.12338598  -0.55950143   0.26481745  -0.10971927 0.00080550314 
   88000    0.1291137  -0.55987464   0.25502943  -0.11129421 0.00026545656 
   89000   0.12548751  -0.56138017   0.26407002  -0.10919508 -0.0014531271 
   90000   0.13046293  -0.56201257   0.25725126  -0.10918771 -0.00073188356 
   91000   0.12654375  -0.55382568    0.2535189  -0.11060833 -0.0017547464 
   92000   0.13253793  -0.56146873   0.25429689  -0.10848768 -0.0010627264 
   93000   0.12807022  -0.56294291   0.25635193  -0.11460423 -0.00078099248 
   94000   0.13121586  -0.55957355   0.25000664  -0.11286461 -0.0021623258 
   95000   0.12503143  -0.56335037   0.26391128  -0.11200771 -0.0010473267 
   96000   0.13034839  -0.56424519   0.25478671   -0.1140566 -0.0012477843 
   97000    0.1245746  -0.56127687   0.26291358  -0.11161673 -0.0010050377 
   98000   0.12575355  -0.56118411   0.25940395  -0.11326628 -0.00054666554 
   99000   0.13378224  -0.56223193   0.25573418  -0.10594826 -0.0018942538 
  100000   0.12679096  -0.56056921   0.26196627  -0.10853391 -0.0033245747 
  101000   0.12302136  -0.56341821   0.26694047   -0.1120596 -0.0025580121 
  102000   0.12795888  -0.56459755   0.25769146  -0.11508626 -0.0021879284 
  103000   0.13265469  -0.56046707   0.25085743  -0.11075044 -0.0023180956 
  104000    0.1272817  -0.55974697   0.25708732  -0.11185494 0.00089807461 
  105000   0.11642216  -0.55869398   0.26273277  -0.12143577 -0.0022697628 
  106000   0.12151386  -0.55609697   0.25395692  -0.11998176 -0.0022430963 
  107000   0.11820958  -0.56347546   0.26199206  -0.12427848 -0.0025108545 
  108000    0.1178149  -0.56364343   0.26078635  -0.12624381 -0.0013600961 
  109000    0.1182358  -0.56521327   0.26146334  -0.12650571 -0.0011831711 
  110000   0.11768027   -0.5649419   0.26378021  -0.12475024 -0.0023106235 
  111000   0.12049892  -0.56327004   0.25853517  -0.12409806 -0.0025512157 
  112000   0.11755553  -0.56280896   0.26259984  -0.12398468 -0.0011581259 
  113000    0.1211769   -0.5622427   0.25671102  -0.12387853 -0.0023631343 
  114000   0.12457004  -0.56396462   0.25602873  -0.12119616 -0.0016607908 
  115000   0.12466067  -0.56188604    0.2528246  -0.12218586 -0.0014940442 
  116000   0.11859326  -0.55920828   0.25993247  -0.12149572 -0.0016731573 
  117000    0.1211554  -0.56123075   0.25539543   -0.1242144 -0.0026116152 
  118000   0.12246552  -0.55639645   0.24857854  -0.12423302 -0.0028210281 
  119000   0.12279478   -0.5626392   0.25560541  -0.12295532 -0.0025941651 
  120000   0.12092943  -0.55974103   0.25404952  -0.12440932 -0.0014765393 
  121000   0.12239726  -0.56338458   0.25489471  -0.12500731 -0.00055726198 
  122000   0.12472131  -0.56148908   0.25155621  -0.12296639 -0.0018684672 
  123000   0.12165344  -0.56157792   0.25876544  -0.12044496 -9.8376725e-05 
  124000    0.1265723   -0.5632132   0.25060116  -0.12287078 -0.00040441754 
  125000   0.11939173  -0.55990396   0.25753659  -0.12339032 -0.0018249017 
  126000   0.12134109  -0.56340754   0.26125479  -0.12025347 -0.0013882008 
  127000   0.11895944  -0.55930762   0.25950416  -0.12147444 -0.0028476909 
  128000   0.11652225  -0.56407699    0.2641459   -0.1252556 -0.0012849244 
  129000   0.12571648  -0.56124673    0.2481414  -0.12464701 -0.00044401157 
  130000   0.11632895  -0.56222137   0.26155454  -0.12628111 -0.002655228 
  131000   0.10765856   -0.5450559   0.25804224   -0.1256255 -0.0032481946 
  132000   0.12252622  -0.56111368   0.25070223  -0.12673556 -0.0023282648 
  133000   0.11751831  -0.56180349   0.25670533  -0.12892952 -0.001569335 
  134000   0.10464475  -0.55417827   0.26677083  -0.13053722 -0.0031599334 
  135000   0.12314232   -0.5617534   0.24892818  -0.12822577 -0.0024111464 
  136000   0.11836455  -0.55933211   0.25217925  -0.12971563 -0.0034263361 
  137000   0.11890929  -0.56334383   0.25452915  -0.13056084 -0.0022303345 
  138000   0.11908148  -0.55707743   0.25062394  -0.12794153 -0.0031107161 
  139000   0.12274779  -0.56274816   0.24812635  -0.13061378 -0.0029488484 
  140000   0.11168487  -0.55793339   0.26288115  -0.12762834 -0.002896992 
  141000   0.12010645   -0.5630665   0.25172649  -0.13129155 -0.0012970524 
  142000   0.10925424  -0.55947213   0.27153888  -0.12415305 -0.002672192 
  143000   0.12406618  -0.56289905   0.25292149  -0.12399316 -0.00027764658 
  144000   0.11289001  -0.55823989   0.26271545  -0.12629395 -0.0024058394 
  145000   0.12136442  -0.56297677    0.2547431  -0.12629941 -0.0027354927 
  146000   0.11825744  -0.55515501   0.25092118  -0.12695716 -0.0036809205 
  147000   0.11639466  -0.55889084   0.25274061  -0.13166601 -0.0029469023 
  148000   0.11544788  -0.55981987    0.2576794  -0.12907554 0.00030968033 
  149000   0.11487259  -0.56051425   0.25989631  -0.12841542 -0.0025593785 
  150000   0.12523569  -0.56024158   0.24521486  -0.12728915 0.00029992652 
  151000   0.12240679  -0.56320763   0.25263707  -0.12707371 -0.0018777417 
  152000   0.11742725  -0.55985048   0.25154534  -0.13227299 -0.0014879661 
  153000   0.11155021  -0.55589612   0.25433633  -0.13433776 -3.2374647e-06 
  154000   0.11398637  -0.55249142   0.24741759  -0.13419982 -0.00084803229 
  155000    0.1121753  -0.55460973   0.25024912  -0.13620153 -0.0012475099 
  156000   0.11329756  -0.55688559   0.25154784  -0.13549632 -0.0014873538 
  157000   0.11116377  -0.56282252   0.25643036  -0.13974942 -0.0011987114 
  158000   0.11709958  -0.56230808   0.24916569  -0.13760144 -0.00057764817 
  159000   0.10882762  -0.55698918   0.25521263  -0.13863588 -0.003372924 
  160000   0.11143986  -0.56142763   0.25952865  -0.13484238 0.00026682266 
  161000   0.11261974  -0.55530091   0.25154677  -0.13492881 -0.00037491433 
  162000   0.10840161  -0.55758857   0.25797648  -0.13711006 -0.0027533766 
  163000    0.1116638  -0.55839202   0.25201816  -0.13898155 -0.0014713784 
  164000   0.11772412  -0.56159783   0.24630777  -0.13881287 -0.0024378777 
  165000   0.10452642  -0.55367487   0.25953603  -0.13744599 -0.0009958167 
  166000   0.11231413  -0.56045293   0.25535625  -0.13672948 -0.0017627288 
  167000    0.1127249  -0.56387248    0.2573224  -0.13756711 -0.0027000084 
  168000   0.10995175  -0.56181372   0.25974111  -0.13724678  -0.00276844 
  169000   0.11249091  -0.56330263    0.2554378  -0.13923263 -0.0019614137 
  170000   0.11426808  -0.56368962   0.25483698  -0.13755632 -0.0026940425 
  171000   0.11559898  -0.56267847   0.25338606  -0.13600098 -0.00059302929 
  172000   0.11481483  -0.56167452   0.25261736  -0.13694122 -0.0027248642 
  173000   0.11417794  -0.56157606   0.25245655  -0.13795833 -0.0023844404 
  174000   0.11657911  -0.56363378   0.25141835  -0.13745471 6.6766814e-05 
  175000   0.11595154  -0.56482525   0.25397301   -0.1370323 -0.0017092794 
  176000   0.11416169  -0.56160219   0.25503981  -0.13542555 -0.0032235502 
  177000    0.1110721  -0.56269968   0.25849457   -0.1376998 -0.0034634028 
  178000   0.10747107  -0.56079591   0.26281447  -0.13687433 -0.0025620664 
  179000    0.1097811  -0.56372744   0.26029314  -0.13886431 -0.002104695 
  180000   0.11301889  -0.56347395    0.2563901  -0.13766017 -0.001722928 
  181000   0.11880554  -0.56342542   0.24564318  -0.13968394 -0.00072638732 
  182000   0.11344699  -0.56352477   0.25047867  -0.14298067 -0.0020787356 
  183000   0.11438791  -0.56411344   0.25008644  -0.14255105 -0.0018337083 
  184000   0.11253685  -0.56293721   0.25386555  -0.14037059 -0.0016341715 
  185000   0.10881072  -0.56170564   0.25958407  -0.13900624 -0.0022310912 
  186000    0.1102483  -0.56280118   0.25538778  -0.14214302 -0.0022875559 
  187000   0.11298126  -0.56413589   0.25362925  -0.14113936 -0.0014513228 
  188000   0.11142876  -0.56410129   0.25176096  -0.14530038 -0.001443972 
  189000   0.11147931  -0.56254485   0.24810997  -0.14731914 -0.00049107681 
  190000    0.1082537  -0.56227158   0.25097591  -0.14901536  -0.00204218 
  191000   0.11039198  -0.56250815   0.25466858  -0.14235381 -0.001752847 
  192000   0.11019982  -0.56034159   0.25465066  -0.14049323 -0.0012358538 
  193000   0.11495357  -0.56315389   0.25341669  -0.13741328 -0.0025208659 
  194000   0.11418068   -0.5635317   0.25594717  -0.13641923 -0.0017925367 
  195000   0.10969344  -0.56197527    0.2581374  -0.13939928 -0.0008214893 
  196000    0.1175903  -0.56306159   0.24865618  -0.13812885 -0.0010012374 
  197000   0.11442287  -0.56400488   0.25425795  -0.13821858 -0.0011352645 
  198000   0.11982629  -0.56360749   0.24685803  -0.13712097 -0.00097849989 
  199000   0.11772467   -0.5631971   0.24907459  -0.13764451 -0.0018844216 
  200000   0.11001637  -0.55820921   0.25715371   -0.1361328 -0.0028355147 
  201000    0.1167667  -0.56270111   0.25202075  -0.13563843 -0.0017122487 
  202000   0.11138107   -0.5621075   0.25677311  -0.13836592 -0.0024644562 
  203000   0.11148733  -0.56200271    0.2572994  -0.13757554 -0.002824802 
  204000   0.11134322  -0.56003442    0.2519362  -0.14118648 -0.00027437951 
  205000   0.11136447  -0.56326337   0.25333208  -0.14298771 -0.001097057 
  206000   0.11054899  -0.56211481   0.25228362  -0.14411008 -0.0011515431 
  207000   0.11123241  -0.56455407   0.25547131  -0.14233714 -0.00092407386 
  208000   0.10936442  -0.56036651   0.25566599  -0.14075516 -0.0015356249 
  209000   0.11122845  -0.56209187    0.2534585  -0.14189369 -0.00067440972 
  210000   0.11138158  -0.55904564   0.24982941    -0.142247 -0.0019270743 
  211000   0.11627258  -0.56266293   0.24995175  -0.13840997 -0.0027113506 
  212000   0.11339118  -0.56363083   0.25264534  -0.14100372 -0.0023888782 
  213000   0.11437525  -0.56153991    0.2522316  -0.13785134 -0.0020272848 
  214000   0.11317466  -0.56035691   0.25072087  -0.13997885 -0.0033198125 
  215000   0.11183868  -0.56068786   0.25469052  -0.13834287 -0.0034683559 
  216000   0.11445291  -0.56000576    0.2494122  -0.13902017 -0.0026641266 
  217000   0.11500515  -0.56123103   0.24772974  -0.14110004 -0.0013853547 
  218000    0.1087798  -0.56101285   0.25665474  -0.14128913 -0.001748836 
  219000   0.11678642  -0.56312989   0.24659963  -0.14145875 -0.0004278575 
  220000   0.11208376  -0.55892017   0.25156144  -0.13933687 -0.0023296442 
  221000   0.11628693  -0.56093015   0.24880429  -0.13780314 -0.0018730642 
  222000   0.11318645  -0.56129082   0.25462255  -0.13699341 -0.0014711451 
  223000   0.11331533  -0.56387792   0.25101198  -0.14299787 -0.0031479499 
  224000   0.11340526  -0.56361667   0.25331379      -0.1403 -0.0019212433 
  225000   0.11255219  -0.56248336   0.24998546  -0.14377383 -0.00063503909 
  226000   0.11474276  -0.56538345   0.24727339  -0.14610215 -0.0022973143 
  227000   0.11174328  -0.56404569   0.25079094  -0.14574329 -0.0026029958 
  228000   0.11281463  -0.56282088   0.24774916  -0.14595423 -0.0022966585 
  229000   0.10867721  -0.56259969   0.25150326  -0.14818124 -0.0020892494 
  230000     0.111976   -0.5643003   0.24733579  -0.14910419 -0.00076116454 
  231000   0.10593683   -0.5615277   0.25485938  -0.14786118 -0.001797185 
  232000   0.11344505  -0.56465733     0.243834   -0.1507608 6.253872e-05 
  233000   0.10665074  -0.56393992   0.25350136   -0.1505612 -0.0025885486 
  234000   0.10965026  -0.56457398   0.25212343  -0.14807668 -0.0007768926 
  235000   0.11239338  -0.56304111   0.24928796  -0.14526714 -0.0024334471 
  236000   0.11315161  -0.56360539   0.24887334  -0.14510941 -0.0017985207 
  237000   0.10988865  -0.56274725   0.25046285  -0.14755317 -0.00066272315 
  238000   0.11231981  -0.56359855    0.2487086  -0.14651424 -0.0012775834 
  239000   0.10864018  -0.56475622   0.25547324  -0.14642331 -0.0023436751 
  240000   0.11163479  -0.56389834   0.25103384  -0.14551568 -0.0012944445 
  241000   0.10831668  -0.56295928   0.25140241  -0.14918215 -0.0015750508 
  242000    0.1151606  -0.56343105   0.24675701  -0.14403977 -0.00081240529 
  243000   0.11131498  -0.56232576    0.2510105  -0.14444586 -0.0019296509 
  244000   0.10862313    -0.564396   0.25633579   -0.1452261 -0.0013316905 
  245000   0.10842588   -0.5635944   0.25206708   -0.1489889 -0.0013779189 
  246000   0.10297336  -0.56317235   0.25863291  -0.15017475 -0.0013956642 
  247000   0.10663871  -0.56403083   0.25507412  -0.14909739 -0.001916067 
  248000   0.11044126  -0.56306157   0.24715371  -0.15034823 -0.0017922437 
  249000    0.1101329  -0.56454519   0.24919221  -0.15025561 -0.0012274562 
  250000   0.10986201  -0.56295328   0.24937179  -0.14889019 -0.0010111584 
  251000    0.1118616  -0.56266654   0.24755414  -0.14742357 -0.00055617922 
  252000   0.10975089  -0.56371766   0.25035123  -0.14884173 -0.00064965399 
  253000   0.10702771  -0.56333627   0.25263658  -0.15025723 -0.00064703228 
  254000    0.1063611  -0.56068684   0.25026949  -0.15097418 -0.0028071128 
  255000   0.10407828  -0.56430773   0.25837118   -0.1499155 -0.0017581322 
  256000   0.10521686  -0.56358182   0.25716323  -0.14869072 -0.0021407945 
  257000   0.10940481  -0.56351027   0.25039125   -0.1491131 -0.0015209539 
  258000   0.10859979  -0.56207955   0.25240674  -0.14687368 -0.0021322042 
  259000   0.10778051  -0.56340719   0.25316954  -0.14866668 -0.0007542254 
  260000     0.104024  -0.56188203   0.25421289  -0.15172947 -0.0015016161 
  261000   0.10071995  -0.56122598   0.25449479  -0.15574452 -0.0025653347 
  262000   0.10819108  -0.56397402    0.2463408  -0.15544678 -0.0017468291 
  263000   0.10531134  -0.56250825   0.24962029  -0.15501847 -0.0014207785 
  264000   0.10695548  -0.56219332   0.24739184   -0.1544673 -0.0023805998 
  265000   0.10455944   -0.5614659   0.24969715   -0.1550264 -0.0027827553 
  266000   0.10737766  -0.56180885   0.24609348  -0.15474831 0.00019998471 
  267000   0.10799826  -0.56455798   0.24758718  -0.15507341 -0.0015488823 
  268000   0.10406715  -0.56224828   0.25048632  -0.15575759 -0.0017380332 
  269000   0.10449721  -0.56159129   0.24906736  -0.15587487 -0.0023121241 
  270000   0.10550062  -0.56216633   0.24654602  -0.15746707 -0.0023537048 
  271000   0.10549886  -0.56460154   0.24988759  -0.15656334 -0.0022395683 
  272000   0.10235177   -0.5632937   0.25177797  -0.15808285 -0.001683456 
  273000   0.10246345  -0.56192416   0.24916983  -0.15915402 -0.0029556525 
  274000   0.10224079  -0.56339313   0.25088992  -0.15923669 -0.0011430688 
  275000   0.10241238  -0.56280081    0.2491714  -0.16010566 -0.0015352115 
  276000   0.10523646  -0.56367741   0.24407104  -0.16184911 -0.0021638867 
  277000   0.10021626   -0.5592293   0.24814299  -0.16085471 -0.003675927 
  278000   0.10541941  -0.56124585   0.24543741  -0.15777694 -0.0027299549 
  279000   0.10660751   -0.5626481   0.24396999  -0.15886556 2.9015626e-05 
  280000   0.10893312  -0.56399556   0.24351821  -0.15717853 -0.0012810178 
  281000   0.10635543  -0.56401582   0.24482696   -0.1597542 -0.001972081 
  282000   0.10322256  -0.56318107    0.2507821   -0.1576607 -0.0020946155 
  283000    0.1054111  -0.56355124   0.24525373  -0.16027845 -0.0016230541 
  284000   0.10252112  -0.56443382   0.25047741  -0.16026965 -0.001473181 
  285000   0.10521154  -0.56350213   0.24543267  -0.16034956 -0.00056150667 
  286000    0.1049274  -0.56366294   0.24608297  -0.16028604 -0.0014499502 
  287000    0.1077278  -0.56422663   0.24447911  -0.15825556 -0.0009436205 
  288000   0.10652114  -0.56284083   0.24584454  -0.15731321 -0.0010295535 
  289000   0.10922572  -0.56385389   0.24407177  -0.15604468 -0.00098775175 
  290000   0.10360621  -0.56444946    0.2462066  -0.16292949 -0.00085542237 
  291000   0.10410582  -0.56212815   0.24541733  -0.16064849 -0.0027077134 
  292000   0.10522099    -0.562582   0.24550113  -0.15934681 -0.0025110102 
  293000   0.10666888  -0.56255407   0.24485877  -0.15779074 -6.0796047e-05 
  294000   0.10492041  -0.55983372   0.24562141  -0.15692885 -0.00034546957 
  295000   0.10731818   -0.5627908   0.24238003  -0.15953287 -0.0029607565 
  296000   0.10733319  -0.56419851   0.24211844  -0.16117967 -0.0015484382 
  297000   0.10188496  -0.56354972   0.24687412   -0.1639425 -0.00052242539 
  298000   0.10427106  -0.56316511   0.24255193  -0.16430314 -0.0028632179 
  299000   0.10116378  -0.56069163   0.24643619  -0.16260345 -0.00074581803 
  300000   0.10341048    -0.562399   0.24448734  -0.16289169 -5.7664909e-05 
  301000    0.1043238  -0.56387028   0.24658199  -0.16089919 -0.0018320913 
  302000   0.10250073   -0.5631069   0.24739205  -0.16205865 -0.003087388 
  303000    0.1007737  -0.56157206   0.24881147  -0.16169335 -2.7649232e-05 
  304000   0.10163931  -0.56224209   0.24702849  -0.16284875 -0.0027073541 
  305000   0.10161567  -0.56283445    0.2490591  -0.16144592 -0.00070960637 
  306000  0.097793988   -0.5633788   0.25345467   -0.1633237 -0.0032444958 
  307000   0.10213575  -0.56063472   0.24606496   -0.1614607 0.00040430002 
  308000   0.10470389  -0.56331555   0.24523487  -0.16112179 -0.0024350979 
  309000   0.10196147   -0.5632543   0.25065734  -0.15974916 -0.00085859887 
  310000   0.10255855  -0.56324017   0.25017945  -0.15931786 -0.00032400757 
  311000   0.10384921  -0.56177763   0.24872248   -0.1573775 -1.8022181e-05 
  312000   0.10482146  -0.56347722   0.24941797  -0.15692411 -0.0027676177 
  313000   0.10254841  -0.56038772    0.2467416  -0.15991844 -0.0027127365 
  314000   0.10473434  -0.56314124   0.24839725  -0.15773946 -0.0021607774 
  315000   0.10302427  -0.56042073   0.24761962   -0.1583601 -0.00055299653 
  316000   0.10406922  -0.56475878   0.24680193  -0.16194938 -0.0024640042 
  317000   0.10592994  -0.56242646   0.24471154  -0.15891809 -0.0013063368 
  318000   0.10243278  -0.56463007   0.25186521  -0.15921055 -0.0012707058 
  319000   0.10542421  -0.56404317   0.24911601  -0.15688846 -0.0015178871 
  320000   0.10094942  -0.56171614   0.25118422  -0.15920126 -0.00078145097 
  321000  0.099819964  -0.56585039    0.2530207  -0.16319216 -0.0014228087 
  322000   0.10441388  -0.56332465   0.24703718  -0.15976333 -0.0027085307 
  323000   0.10632433  -0.56389774   0.24410016  -0.16040953 -0.0011061805 
  324000   0.10441811   -0.5613582   0.24597862   -0.1588491 -0.001292121 
  325000   0.10333944  -0.56171606    0.2480826  -0.15871998 -0.0018304118 
  326000   0.10460917  -0.56236154   0.24676014  -0.15878451 -0.001900041 
  327000   0.10643512  -0.56271029   0.24356587  -0.15959029 -0.0018992945 
  328000   0.10365859  -0.56331368   0.24850558  -0.15941619 -0.0020461512 
  329000   0.10159641   -0.5635701   0.25006836   -0.1612012 -0.0015053246 
  330000   0.10096538  -0.56510513   0.25305696  -0.16069359 -0.0021729655 
  331000   0.10343446  -0.56609013   0.24913219  -0.16190202 -0.0016482206 
  332000   0.10203252  -0.56206254   0.24801558  -0.16109265 -0.0021110885 
  333000   0.10484363  -0.56091905   0.24486153  -0.15888916 -0.0031914876 
  334000   0.10145699  -0.56091727    0.2502177  -0.15860803 -0.0031744379 
  335000   0.10158117  -0.55831041   0.24575634  -0.16027638 0.00074723069 
  336000   0.10030807  -0.56031633   0.24874098  -0.16120612 -0.003828763 
  337000   0.10201921  -0.56278375    0.2477502  -0.16209919 -0.0029444254 
  338000   0.10590684  -0.56058943   0.24107631  -0.16075092 0.00038896407 
  339000   0.10123075  -0.55834133   0.24452916  -0.16205978 -0.0037481916 
  340000  0.098837852  -0.55965696   0.24831083  -0.16318087 0.00071698743 
  341000  0.099574066  -0.56206215   0.24908222  -0.16371103 -0.0011556839 
  342000   0.10345847  -0.56319818   0.24708002  -0.16102624 -0.00060193616 
  343000  0.099918558  -0.55990481   0.25069281  -0.15942668 -0.0012047134 
  344000   0.10167999  -0.56353801   0.24848475  -0.16262743 -0.0017515189 
  345000   0.10432241  -0.56444483   0.24507332   -0.1629845 -0.0014684106 
  346000   0.10213704  -0.56063559   0.24312611  -0.16439849 -0.0015157709 
  347000  0.099309606  -0.56366634   0.24801969   -0.1667742 -0.00029240022 
  348000   0.10472645      -0.5632   0.24353107  -0.16267623 -0.0013476627 
  349000  0.099006186  -0.56404618   0.25093931  -0.16468926 -0.0024825493 
  350000   0.10414495  -0.56434035   0.24663341  -0.16158595 -0.0019173317 
  351000   0.10489263  -0.56471601   0.24505096  -0.16242323 -0.002165757 
  352000   0.10518226  -0.56289038   0.24113282  -0.16408156 -0.0011467299 
  353000   0.10183869  -0.56246665   0.24618122  -0.16362169 -0.0020966562 
  354000   0.10301058  -0.56403527   0.24467342  -0.16494137 -0.0023133209 
  355000  0.098080558  -0.56428555     0.250655  -0.16660053 -0.00093804034 
  356000     0.100054  -0.56254623   0.24847334  -0.16408454 -0.00010322952 
  357000    0.1000404  -0.56413777   0.25050836  -0.16366144 -0.0012347232 
  358000   0.10280024  -0.56259088   0.24512558  -0.16336013 -0.0013628279 
  359000   0.10334177  -0.56414938   0.24534902   -0.1638834 -0.0017173464 
  360000  0.099584843  -0.56338431   0.25002083  -0.16407843 -0.0013757191 
  361000   0.10321023  -0.56135116   0.24567574  -0.16095564 -0.0001634732 
  362000   0.10541794  -0.56426267   0.24595086  -0.16028251 -0.001966856 
  363000    0.1031217   -0.5657245   0.24714426  -0.16399319 -0.0014462482 
  364000    0.1016306  -0.56287844   0.24979579  -0.16073086 -0.0024252529 
  365000   0.10365031  -0.56238728    0.2469645  -0.16004329 -0.0013138561 
  366000   0.10426496  -0.56298577    0.2461758  -0.16050907 -0.0017626629 
  367000   0.10243188  -0.56172816   0.24753423  -0.16064096 -0.0020502608 
  368000   0.10499149  -0.56242342   0.24122001  -0.16381339 -0.0020973615 
  369000   0.10134299   -0.5632607   0.25125072  -0.16008934 -0.0025860512 
  370000   0.10355357  -0.56314161   0.24548218  -0.16242496 -0.0011265238 
  371000   0.10428142  -0.56287186   0.24507003  -0.16147626 -0.0021034221 
  372000   0.10474583  -0.56270329   0.24365151  -0.16203002 -0.0020954083 
  373000   0.10264875  -0.56084434   0.24525754  -0.16170871 -0.0029580515 
  374000   0.10360332  -0.56421705   0.24675271  -0.16215529 -0.0023471217 
  375000   0.10232634  -0.56251072     0.247072  -0.16204396 -0.0017688848 
  376000   0.10519296  -0.56333538   0.24352932  -0.16211403 -0.00071957115 
  377000   0.10312541  -0.56184252   0.24527934  -0.16197055 -0.0015462804 
  378000   0.10157282  -0.56300225   0.24903552  -0.16170155 -0.0028105904 
  379000  0.099615586  -0.56355585    0.2505366  -0.16368811 -0.0015974242 
  380000   0.10185706  -0.56063004   0.24332062  -0.16461814 0.00016364909 
  381000   0.10176751  -0.56145503   0.24584098  -0.16305702 -0.0030100101 
  382000  0.098218584  -0.56271634   0.25399612  -0.16148328 -0.0027862886 
  383000  0.098811051  -0.56482168   0.25163165  -0.16506494 -0.00012047768 
  384000   0.10371166  -0.56290951   0.24334559  -0.16409246 -0.0025609295 
  385000  0.099946618  -0.56208272   0.24965304   -0.1626023 -0.0023998532 
  386000    0.1009304  -0.56268901   0.24688112  -0.16450573 -0.000734506 
  387000    0.1009388  -0.56135671   0.24747538  -0.16256659 -0.00015971756 
  388000   0.10149943  -0.56358713    0.2449962  -0.16643576 -0.00076074957 
  389000   0.10248855  -0.56121202   0.24419272  -0.16338136 -0.002314152 
  390000   0.10218014  -0.56386235   0.24489633  -0.16579041 -0.0018920182 
  391000   0.10111714  -0.56221673   0.24871703  -0.16191762 -0.0018689997 
  392000   0.10341887  -0.56407678   0.24541374  -0.16363049 -0.0019339769 
  393000   0.10200734  -0.56326005   0.24458029  -0.16576319 -4.0263634e-05 
  394000   0.10136327   -0.5620039    0.2477785  -0.16227434 -0.0026106989 
  395000  0.096651287   -0.5613939    0.2544542  -0.16205226 -0.00064752977 
  396000  0.098217903  -0.56264358    0.2527461  -0.16266156 -0.00042748477 
  397000  0.097910023  -0.56248193   0.25235133  -0.16335622 -0.0021199011 
  398000   0.10078251  -0.56292768   0.24853777  -0.16330946 -0.0020816925 
  399000   0.10191426  -0.56348219    0.2469585  -0.16374667 -0.0013362253 
  400000   0.10284678  -0.56286255   0.24599761     -0.16269 -0.0015488227 
  401000   0.10192508  -0.56446877    0.2482181  -0.16345743 -0.00018925014 
  402000   0.10303931   -0.5619962   0.24327358  -0.16425905 -0.0013648704 
  403000   0.10479275  -0.56301931   0.24262906  -0.16329816 -0.0017453773 
  404000  0.099648684  -0.56170289   0.24763973   -0.1646824 -0.0011024726 
  405000   0.09993683  -0.56347414   0.24708609  -0.16657533 -0.0010910054 
  406000   0.10199996  -0.56236677   0.24437591  -0.16508537 -0.0014699783 
  407000   0.10354704  -0.56326971   0.24638892   -0.1616561 -0.0020080826 
  408000   0.10109883  -0.56387746   0.24678774  -0.16553508 -0.0012258875 
  409000   0.10113461  -0.56327236   0.24806689  -0.16359719 -0.0018243404 
  410000  0.099975571   -0.5626475   0.24653804  -0.16623868 -0.0023901307 
  411000   0.10368583  -0.56317761   0.24308556   -0.1646593 -0.0014010588 
  412000    0.1004794  -0.56313902   0.24765338  -0.16485957 -0.0021399397 
  413000  0.099963565  -0.56283458   0.24789873  -0.16508306 -0.0019776285 
  414000   0.10351126  -0.56454407   0.24441515  -0.16495787 -0.0010647612 
  415000   0.10063397  -0.56326103   0.24688824  -0.16551502 -0.0010590729 
  416000   0.10044213  -0.56343515    0.2468819  -0.16598305 -0.0023450122 
  417000   0.10393994  -0.56321232   0.24298902  -0.16440963 -0.0015473018 
  418000   0.10178098  -0.56720491   0.24555663  -0.16907105 -0.0022884262 
  419000   0.10068667  -0.56469676    0.2475653  -0.16619467 -0.00075465192 
  420000   0.10272623  -0.56306995   0.24560431  -0.16347142 -0.0012673201 
  421000   0.10093535  -0.56258465   0.24433531  -0.16693977 -0.0019852121 
  422000   0.10169136   -0.5638948   0.24406748  -0.16738444 -0.00064520744 
  423000   0.10163785  -0.56324518   0.24304287  -0.16783965 -0.0010762158 
  424000   0.10047877  -0.56309476   0.24609934  -0.16637031 -0.0013774223 
  425000   0.10286776   -0.5619667   0.24233235  -0.16542796 -0.0024106272 
  426000   0.10332167  -0.56256359   0.24455373  -0.16312302 -0.0020292821 
  427000   0.10266382  -0.56430241   0.24713656  -0.16326517 -0.0014818989 
  428000   0.10285563  -0.56380528   0.24566564  -0.16395143 -0.0012519574 
  429000  0.099828083  -0.56079847     0.245218  -0.16593078 -0.0016598303 
  430000  0.097297189  -0.56171586   0.24932381  -0.16653635 -0.00016567234 
  431000   0.10078283  -0.55923608   0.24389574  -0.16425942 -0.0021582184 
  432000   0.10171866  -0.56352604   0.24355799  -0.16748425 -0.00092952394 
  433000   0.10147161  -0.56417641   0.24435974  -0.16770322 -0.001381377 
  434000   0.10132147  -0.56122472    0.2447997  -0.16453663 -0.0028302321 
  435000   0.10269257  -0.56451105   0.24540525  -0.16516202 -0.0013564774 
  436000   0.10209778  -0.56044657   0.24473803   -0.1626564 -0.00045828135 
  437000   0.10145375  -0.56107338   0.24517823  -0.16380847 -0.00053173772 
  438000    0.1027507  -0.56113875   0.24494988  -0.16215796 -0.0012578232 
  439000  0.099006682    -0.564151   0.25091503  -0.16481762 -0.00073835143 
  440000  0.099303034  -0.56402138   0.24970493  -0.16545385 -0.0019818133 
  441000   0.09889182  -0.56261835     0.250042  -0.16433018 -0.0022545814 
  442000  0.097194819  -0.56145641   0.25203814  -0.16371604 -0.0032237609 
  443000  0.099653488  -0.56174327   0.24588092  -0.16647439 -0.003145495 
  444000   0.09952427  -0.56239035   0.24760726  -0.16558883 -0.0030996334 
  445000  0.099682975  -0.56201984   0.24702682  -0.16556085 -0.0010495608 
  446000   0.10193049  -0.56281003   0.24631925  -0.16368944 -0.001916874 
  447000   0.10146218  -0.56318591   0.24576731  -0.16531928 -0.0022361587 
  448000   0.10137331  -0.56392238   0.24644905  -0.16550723 -0.00090270027 
  449000  0.097253221  -0.56434774   0.25017142  -0.16838653 -0.0014612124 
  450000  0.099471806  -0.56231971   0.24643905  -0.16676505 -0.00076362034 
  451000  0.099781582  -0.56484363   0.24918798  -0.16607567 -0.0029225166 
  452000  0.099790792  -0.56211386   0.24624574  -0.16627434 -0.0031165084 
  453000   0.10133727  -0.56056558    0.2428315    -0.165822 -0.0013582897 
  454000   0.10302802  -0.56317319   0.24422187  -0.16450469 -0.00011715057 
  455000   0.10030208  -0.56238885   0.24582169  -0.16620691 -0.00073867264 
  456000  0.098303312  -0.56139227    0.2466598  -0.16736852 -0.0010084552 
  457000   0.10063407  -0.56392778    0.2442963  -0.16877355 -0.0016219489 
  458000   0.10031406   -0.5620654   0.24495737  -0.16672982 -0.0021607422 
  459000  0.096353597  -0.56263075   0.25187641  -0.16631316 -0.0027619333 
  460000   0.09772637  -0.56326329   0.24877491  -0.16798931 -0.0020636746 
  461000   0.10036657  -0.56392474   0.24603833  -0.16742949 -0.00068941196 
  462000   0.10034828  -0.56465476   0.24471927    -0.169506 -0.0012632579 
  463000  0.099849927  -0.56448192   0.24591095  -0.16888853 -0.0010939388 
  464000  0.098264641  -0.56052199   0.24493223  -0.16828379 -0.0024762818 
  465000   0.10130677  -0.56278529   0.24346306  -0.16745588 0.00055882591 
  466000  0.097868039  -0.56287971   0.24864204  -0.16752623 -0.0017306975 
  467000   0.10175094  -0.56204926   0.24368849  -0.16582857 -8.0990137e-05 
  468000  0.099502343  -0.56250241   0.24527814  -0.16806288 -0.0027476951 
  469000   0.09713214  -0.56143792   0.24592264    -0.169907 -0.0022080763 
  470000  0.098538794  -0.56292901   0.24705708  -0.16815497 -0.0018296952 
  471000   0.10086454  -0.56305834   0.24400652  -0.16784841 -7.2413936e-06 
  472000  0.099828803  -0.56263591   0.24594635  -0.16703879 -0.0010958678 
  473000  0.099512602   -0.5619962   0.24677895  -0.16604049 -0.0014120044 
  474000    0.1001994  -0.56481381   0.24557676  -0.16903074 -0.002188533 
  475000   0.10140348  -0.56269422   0.24311061  -0.16757228 -0.0012541845 
  476000  0.098371418  -0.56256353   0.24751914  -0.16757834 -0.00079579731 
  477000  0.096932862  -0.56261892   0.25021626  -0.16709312 -0.0021900072 
  478000  0.097316256  -0.56142193   0.24852362  -0.16701404 -0.00074558587 
  479000  0.097648447  -0.56214384   0.24750994  -0.16825165 -0.001378761 
  480000   0.10169608  -0.56386467   0.24600289  -0.16541181 -0.0017287675 
  481000   0.10082943  -0.56335376   0.24544425  -0.16675872 -0.0023374639 
  482000  0.098795746  -0.56280141   0.24657576  -0.16812351 -0.0010861727 
  483000   0.10060374  -0.56335924   0.24641784  -0.16612893 -0.00067087849 
  484000   0.10029044  -0.56542048   0.24648283  -0.16859485 -0.0012068564 
  485000  0.099845761  -0.56421289   0.24565639  -0.16888031 -0.0020479504 
  486000   0.10322791  -0.56250022   0.24234686  -0.16540707 -0.00021324007 
  487000   0.10063883  -0.56442967   0.24593345  -0.16763117 -0.0021405536 
  488000   0.10083181  -0.56369769   0.24498028  -0.16756305 -0.002184831 
  489000   0.10084018  -0.56487417   0.24282356  -0.17088371 -0.0018062411 
  490000  0.097412009  -0.56388569   0.24693617  -0.17092171 -0.0015719876 
  491000  0.095495761  -0.56459688   0.24708107   -0.1743606 -0.0016844192 
  492000  0.097833836  -0.56396835   0.24368598   -0.1736222 -0.0022559881 
  493000   0.09925362   -0.5628519   0.24214576  -0.17191761 -0.00066477563 
  494000  0.099428991  -0.56413886   0.24216254  -0.17292489 -0.00093969703 
  495000  0.098834605  -0.56456403   0.24317017  -0.17323346 -0.0018575493 
  496000  0.098183523  -0.56342985   0.24312961  -0.17311586 -0.0018974359 
  497000   0.09912645  -0.56489144   0.24488693  -0.17140662 -0.0011123897 
  498000   0.10135215  -0.56408269   0.24284921   -0.1692991 -0.001459525 
  499000    0.1005674  -0.56409621   0.24367888  -0.16965934 -0.0011607313 
  500000  0.096668123  -0.56518043    0.2495941  -0.17067366 -0.0021127627 
  501000   0.10017846  -0.56457961   0.24481206  -0.16959262 -0.001449103 
  502000  0.099903368  -0.56436973   0.24406366  -0.17054352 -0.0016780669 
  503000  0.098203127  -0.56601259   0.24577275  -0.17302608 -0.0011141801 
  504000   0.10111421  -0.56339437   0.24219518   -0.1696215 -0.0011314473 
  505000  0.099011488  -0.56431389   0.24537767  -0.17051067 -0.0016173277 
  506000  0.098621387   -0.5644177   0.24514257  -0.17143436 -0.0017312108 
  507000  0.094717811  -0.56432709   0.25102762  -0.17131045 -0.001947922 
  508000  0.095709533  -0.56465135   0.25035654  -0.17081914 -0.0017734376 
  509000   0.10078339   -0.5642243   0.24340769  -0.16973484 -0.00096292403 
  510000   0.10040632  -0.56370772   0.24375531   -0.1694359 -0.0012528955 
  511000  0.099056918  -0.56311493   0.24475741  -0.16986385 -0.0016639732 
  512000  0.096545371  -0.56344216   0.24790068  -0.17081282 -0.0012233251 
  513000  0.099442697  -0.56334592   0.24466164  -0.16961231 -0.0021278735 
  514000  0.098218417  -0.56355278   0.24599985  -0.17031625 -0.0013906382 
  515000  0.098999375  -0.56419262   0.24605898  -0.16972625 -0.0014296109 
  516000  0.098845585  -0.56447204   0.24522291  -0.17107228 -0.002215647 
  517000  0.098962676  -0.56422162   0.24464857  -0.17122067 -0.0018422901 
  518000   0.09901342  -0.56315318   0.24428465  -0.17044008 -0.0013255287 
  519000   0.09995393  -0.56328458   0.24350244   -0.1699438 -0.00014978086 
  520000  0.099899823  -0.56356843   0.24359373  -0.17021747 -0.00056104537 
  521000  0.097584367  -0.56289797   0.24645262  -0.17015916 -0.0020433511 
  522000  0.097945535  -0.56285782   0.24523493  -0.17079528 -0.0021893785 
  523000  0.097774039   -0.5626883   0.24532668  -0.17079109 -0.0015983541 
  524000  0.095940936  -0.56336639   0.24783188  -0.17171193 -0.0017164596 
  525000   0.10024527  -0.56392547   0.24217918  -0.17147121 -0.00090065733 
  526000  0.099292201  -0.56497606   0.24438832  -0.17174137 -0.0011706121 
  527000  0.098291941  -0.56419089   0.24748791  -0.16935609 -0.00096055618 
  528000  0.099025977  -0.56348902   0.24537512  -0.16966663 -0.0010880156 
  529000  0.099772132  -0.56424028   0.24371655  -0.17095792 -0.0017529279 
  530000   0.09691345  -0.56426766   0.24704892   -0.1719383 -0.002020626 
  531000   0.09634165  -0.56568721    0.2506463  -0.17061764 -0.00087104025 
  532000  0.098630024  -0.56346268    0.2473233  -0.16828567 -0.0012254668 
  533000  0.098676805  -0.56412212   0.24621494  -0.16998334 -0.0016852601 
  534000  0.098909989  -0.56404389    0.2472206  -0.16854989 -0.0016613844 
  535000   0.09767782  -0.56416641   0.24731659  -0.17042352 -0.0015801219 
  536000   0.10041049  -0.56359259    0.2439089  -0.16916092 -0.00088873743 
  537000  0.098401186  -0.56418519   0.24509686  -0.17157767 -0.0007657051 
  538000  0.098747464   -0.5657634   0.24388007  -0.17385356 -0.0013222775 
  539000   0.09438653  -0.56341703   0.24971288  -0.17221175 -0.0026075003 
  540000  0.099060723  -0.56508771   0.24390275   -0.1726856 -0.0012545407 
  541000  0.099582225  -0.56496749   0.24275673  -0.17292962 -0.0014491403 
  542000  0.095022377  -0.56480082   0.24985469  -0.17250054 -0.0021031501 
  543000  0.096398621  -0.56312862   0.24872904  -0.16989091 -0.00079225584 
  544000   0.09767547  -0.56466329   0.24615908  -0.17208144 -0.0018538362 
  545000  0.098473732  -0.56684193    0.2452443  -0.17397821 -0.0012685203 
  546000  0.097717075  -0.56382685    0.2445388  -0.17280292 -0.0014033803 
  547000  0.098452631  -0.56209319   0.24281402  -0.17169138 -0.0021774093 
  548000  0.098749487  -0.56192902   0.24275091  -0.17114531 -0.0013877102 
  549000   0.09759628  -0.56258492   0.24375434  -0.17252652 -0.0009697179 
  550000  0.096506725   -0.5618296   0.24367235  -0.17348653 -0.0011330629 
  551000  0.096117989  -0.56231996   0.24479886  -0.17343312 -0.002434572 
  552000  0.098505499  -0.56433093   0.24323076  -0.17343313 -0.0018890252 
  553000  0.094966217  -0.56234395   0.24726119  -0.17272137 -0.0023811601 
  554000  0.097544821  -0.56245806   0.24286286  -0.17336829 -0.00059281277 
  555000  0.095303912  -0.56252382   0.24577829   -0.1738779 -0.0009523276 
  556000  0.095695804  -0.56135945   0.24505603  -0.17284832 -0.0012539856 
  557000  0.094950024  -0.56110607   0.24538423  -0.17338472 -0.00086675536 
  558000  0.095494744  -0.56344834    0.2462065  -0.17408815 -0.00056637816 
  559000  0.096770231  -0.56354885   0.24582415  -0.17265896 -0.0010269695 
  560000   0.09718032  -0.56323286   0.24522347  -0.17232888 -0.0019475651 
  561000  0.099560577  -0.56335974   0.24327899  -0.17083207 -0.0016050118 
  562000   0.09701316   -0.5626771   0.24516212  -0.17208507 -0.0021926424 
  563000  0.097882646  -0.56252668    0.2447155  -0.17107785 -0.0016253467 
  564000  0.097260473  -0.56387504   0.24533173  -0.17274266 -0.0012677786 
  565000   0.10154431  -0.56427507   0.24233157  -0.16972106 -0.0010202298 
  566000   0.09675163  -0.56317578   0.24562185  -0.17251607 -0.001752072 
  567000  0.095693835  -0.56348607   0.24723497  -0.17279894 -0.0016501521 
  568000  0.095253154  -0.56407593   0.24708982  -0.17419457 -0.00070836358 
  569000    0.0963996  -0.56461638   0.24748613  -0.17262011 -0.0014949656 
  570000  0.097997223  -0.56444054   0.24569832  -0.17183712 -0.00092933912 
  571000   0.10021836  -0.56404135   0.24290104  -0.17090556 -0.00089897989 
  572000  0.098489132  -0.56247208   0.24408239  -0.17074719 -0.00073322482 
  573000  0.099301486  -0.56354557   0.24322999  -0.17145529 -0.0004703112 
  574000  0.094619388  -0.56065825   0.24626125  -0.17255553  -0.00240598 
  575000  0.098797669  -0.56358874   0.24313587  -0.17234785 -0.0022137195 
  576000  0.097887397  -0.56288821   0.24303288  -0.17311486 -0.0022859958 
  577000   0.10017564  -0.56445448   0.24089363  -0.17339014 -0.00076452685 
  578000  0.099071286  -0.56322969   0.24471242  -0.17000207 -0.00086999119 
  579000  0.097303574  -0.56021108   0.24475874  -0.16958708 -0.0028918662 
  580000  0.094942223  -0.56312279   0.24857048  -0.17222688 -0.0022822353 
  581000  0.096427836  -0.56474695   0.24890382  -0.17129066 -0.001326424 
  582000  0.097019846  -0.56431071   0.24707644  -0.17179433 -0.0020789632 
  583000  0.098907866  -0.56476138   0.24422229  -0.17226888 -0.0025906731 
  584000  0.098834283  -0.56453581   0.24495591  -0.17141999 -0.0010326946 
  585000  0.098484445  -0.56387978   0.24425945  -0.17198485 -0.0012255374 
  586000  0.099502523  -0.56493314    0.2430953  -0.17267619 -0.0010505069 
  587000  0.097133134  -0.56346668    0.2466652  -0.17119172 -0.001672183 
  588000   0.09601081  -0.56493712   0.24718871   -0.1738211 -0.0019820808 
  589000  0.095939464  -0.56369471   0.24677994   -0.1730944 -0.0021831804 
  590000  0.098123811  -0.56456785   0.24445055  -0.17302244 -0.0011999541 
  591000  0.095800542   -0.5628373   0.24622228  -0.17300292 -0.0013606722 
  592000  0.097844818  -0.56425312   0.24767575  -0.16990074 -0.0010051799 
  593000  0.099114677  -0.56340763   0.24599269  -0.16883469 -0.0015752146 
  594000   0.10026235  -0.56602964   0.24295483  -0.17277411 -0.0019455252 
  595000   0.10117157  -0.56491758   0.24370297  -0.16955094 -0.0016512214 
  596000   0.10034768  -0.56314197   0.24473677   -0.1679766 -0.00087549167 
  597000  0.099590067   -0.5648636   0.24549728  -0.17007344 -0.0014395467 
  598000  0.098492191  -0.56213642   0.24477622  -0.16971311 3.898089e-05 
  599000   0.10072657  -0.56306168   0.24237608  -0.16968902 -0.001251773 
  600000   0.10056974  -0.56394154   0.24342026  -0.16975979 -0.0015763789 
  601000   0.10044008  -0.56222249   0.24328435  -0.16837101 -0.0014499002 
  602000  0.099498829  -0.56520234   0.24472076  -0.17132547 -0.00096243877 
  603000    0.1011688  -0.56306813   0.24237876  -0.16902985 -0.0013985721 
  604000   0.10045682  -0.56210278   0.24435299  -0.16715757 -0.0023605507 
  605000  0.099390405  -0.56246322   0.24624812  -0.16722152 -0.0015669221 
  606000   0.10076805  -0.56275359   0.24454768  -0.16714714 -0.00077965353 
  607000  0.097433835  -0.56467732   0.24948703  -0.16912975 -0.001672945 
  608000  0.099054494  -0.56227243    0.2466544    -0.167128 -0.0010608469 
  609000  0.097931806  -0.56351341   0.24756164  -0.16914474 -0.00066691069 
  610000   0.10037532  -0.56188514   0.24360394  -0.16781117 -0.0016443894 
  611000  0.098102576  -0.56387957   0.24959769  -0.16721885 -0.0012545631 
  612000  0.097454998  -0.56315781    0.2495309  -0.16753464 -0.0011110687 
  613000  0.095522627    -0.564192   0.25230635  -0.16869015 0.00017591502 
  614000   0.10068523  -0.56218527   0.24616589  -0.16508475 -0.0024730766 
  615000   0.10296108  -0.56258042   0.24288782  -0.16534631 -0.0020504547 
  616000  0.099295582  -0.56328564   0.24861724  -0.16581697 -0.0018349539 
  617000   0.10054335  -0.56408305    0.2474491  -0.16591202 -0.0011099154 
  618000   0.10093684  -0.56286591    0.2459183  -0.16563582 -0.0019781618 
  619000    0.1011315  -0.56337442   0.24696232  -0.16480848 -0.00027541705 
  620000   0.10163066  -0.56182847   0.24433439  -0.16514221 -0.00089273237 
  621000   0.10204556  -0.56305032   0.24392969  -0.16614679 -0.0014180557 
  622000   0.10144379  -0.56387225   0.24559178  -0.16620871 -0.0013120431 
  623000   0.10080684  -0.56419106   0.24480011  -0.16827403 -0.0012758104 
  624000  0.099065347  -0.56519972    0.2465025  -0.17019092 -0.0011316335 
  625000  0.097966083  -0.56348885   0.24679716  -0.16983328 -0.0016264527 
  626000  0.099263484  -0.56340235   0.24393875  -0.17066028 -0.00089973043 
  627000   0.09767124  -0.56375629   0.24902158  -0.16831828 -0.0019242833 
  628000   0.09944384  -0.56403454   0.24674414  -0.16821672 -0.0020140399 
  629000   0.10038745  -0.56447531    0.2442564  -0.16973069 -0.00011882758 
  630000  0.099032662  -0.56275009   0.24492313  -0.16936966 -0.001800895 
  631000   0.10055627  -0.56452571    0.2424673  -0.17131712 -0.0015739507 
  632000  0.097930813  -0.56501331   0.24842318  -0.16978459 -0.0018396389 
  633000  0.099372656   -0.5617391   0.24486096  -0.16791117 -0.0022552525 
  634000  0.096545262  -0.56229705   0.24833212  -0.16923643 -0.002002554 
  635000  0.099885622  -0.56266074   0.24464339   -0.1682814 -0.0010730663 
  636000  0.099871143  -0.56156399   0.24697174  -0.16487802 -0.0019380395 
  637000  0.099793012  -0.56460984   0.24892886  -0.16608386 -0.0013185379 
  638000  0.099402434  -0.56150681   0.24679595  -0.16569925 -0.0023026342 
  639000  0.096505143  -0.56352947   0.25071512    -0.168146 -0.0019017544 
  640000  0.097521444  -0.56131708   0.24704193  -0.16808328 8.2314613e-05 
  641000   0.10145681  -0.56258299   0.24447829  -0.16601343 -0.0022645271 
  642000   0.09837073   -0.5630626    0.2468718  -0.16872579 -6.2256446e-05 
  643000  0.099969319  -0.56213622   0.24401447  -0.16826033 -0.00091091924 
  644000   0.10102377  -0.56246195   0.24319073  -0.16782911 -0.0025260182 
  645000   0.10059856  -0.56309911   0.24399572  -0.16829869 -0.0020681719 
  646000  0.099249869  -0.56186915   0.24379449  -0.16929175 -0.0017962561 
  647000   0.10029117  -0.56267247   0.24452702  -0.16780156 -0.0022531301 
  648000   0.10237375  -0.56232719   0.24476171  -0.16409965 -0.00082089241 
  649000   0.10152298  -0.56168875   0.24459423  -0.16490406 -0.00026840038 
  650000   0.10192366  -0.56211844   0.24496987  -0.16435745 -0.00034983343 
  651000    0.1048395  -0.56406587   0.24140666  -0.16549703 -0.0014835708 
  652000  0.099115892  -0.56128925   0.24610319  -0.16660399 -0.00031109981 
  653000  0.097646027   -0.5622734   0.24832508   -0.1675697 -0.00046997908 
  654000   0.10315014  -0.56406989   0.24319324  -0.16624695 -0.0020720437 
  655000  0.099774278   -0.5632721   0.24609364  -0.16760943 -0.0030427138 
  656000   0.10305501  -0.56188806   0.24086816  -0.16653281 -0.0022838015 
  657000   0.10306721  -0.56137246   0.24191271  -0.16495436 -0.00042583229 
  658000   0.10380358  -0.56438082   0.24224868  -0.16652289 -0.0011403455 
  659000   0.10241516  -0.56236289   0.24246859  -0.16636639 -0.0026837815 
  660000  0.099137335  -0.56222019    0.2458928  -0.16771317 -0.0005873952 
  661000  0.099161648  -0.56439858   0.24907328  -0.16667464 -0.0025894154 
  662000   0.10047778   -0.5648011   0.24354924  -0.17062822 -0.0023748261 
  663000   0.10083592  -0.56219152   0.24262557  -0.16840545 -0.0011663756 
  664000   0.10095841  -0.56287654    0.2431135   -0.1684189 8.2419143e-06 
  665000  0.099495972  -0.56367393   0.24310726  -0.17141484 -0.0026726592 
  666000  0.095950135   -0.5632391   0.24824629  -0.17115645 -0.002157384 
  667000   0.10036823  -0.56479125    0.2438514  -0.17048045 -0.0017140781 
  668000  0.098778112  -0.56128382   0.24311726  -0.17009085 -0.0017334387 
  669000  0.097072868   -0.5619164   0.24623148   -0.1701655 -0.0023827051 
  670000   0.10022814  -0.56270236   0.24304789  -0.16940507 -0.0009155011 
  671000  0.098427017  -0.56249076   0.24428334  -0.17065803 -0.0022971308 
  672000  0.099702371  -0.56126503   0.24470801  -0.16709578 -0.0008241757 
  673000  0.097632928  -0.55898467   0.24226381  -0.17036188 -0.001347096 
  674000   0.10061879  -0.56374041   0.24415842  -0.16874697 -0.00065397342 
  675000   0.10244392  -0.56380476   0.24433705  -0.16589668 -0.0013385261 
  676000   0.10026822  -0.56394513   0.24785808  -0.16577755 -0.0017465888 
  677000   0.10185688   -0.5630796    0.2436467  -0.16674189 -0.00083567418 
  678000   0.10120628  -0.56304509   0.24533324  -0.16599614 -0.0011143544 
  679000  0.098313308  -0.56043258   0.24590253  -0.16715112 -0.00026291337 
  680000   0.10157653  -0.56232597   0.24223104   -0.1678242 -0.0026648479 
  681000  0.098914842  -0.56160889    0.2441371  -0.16919111 -0.0002904302 
  682000   0.10078572  -0.56468064   0.24423524  -0.16936014 -0.00068164386 
  683000   0.10038443  -0.56651095   0.24442102  -0.17160623 -0.0019552763 
  684000  0.099058437  -0.56144201   0.24473698   -0.1682091 -0.0029307297 
  685000   0.10193155  -0.56414454   0.24218393  -0.16915766 -0.0024508681 
  686000  0.099582443  -0.56431373   0.24652325  -0.16850902 -0.001178771 
  687000   0.10072595  -0.56262254   0.24331625  -0.16831063 -0.0028817681 
  688000   0.09873177  -0.56099198    0.2441923  -0.16879345 -0.0024206977 
  689000  0.099556214  -0.56243124   0.24357826  -0.16961084 -0.001789896 
  690000  0.099355652  -0.56300126   0.24561991  -0.16843987 -0.00044638084 
  691000  0.098146533  -0.56414062   0.24670516  -0.17030654 -0.00089369378 
  692000   0.09645902  -0.55949474   0.24399265  -0.17090288 -0.00082750135 
  693000  0.096786113  -0.56210542   0.24374429  -0.17327158 -0.0023647085 
  694000   0.09561391  -0.56224802   0.24681239   -0.1721033 -0.0026485369 
  695000  0.094951318  -0.56304359   0.24666238  -0.17404215 -0.0030322367 
  696000  0.097165301  -0.56165974   0.24341382  -0.17258793 -0.002894651 
  697000  0.096251112  -0.56133342   0.24458174  -0.17246413 -0.0021605393 
  698000  0.096254205  -0.56123161   0.24685137  -0.17008805 -0.0024099353 
  699000   0.10068873  -0.56157919   0.24171844   -0.1689209 -0.002306533 
  700000   0.09576827  -0.56311826   0.24915755  -0.17039698 -0.0030581227 
  701000  0.098264752  -0.56306894   0.24769051  -0.16807228 -0.0020243021 
  702000   0.09644788  -0.56374794   0.24939821  -0.16976721 -0.0013706634 
  703000  0.097674872  -0.56381462   0.24718744  -0.17020532 -0.0007357132 
  704000  0.097807057  -0.56409307   0.24748349  -0.16998956 -0.0010593768 
  705000   0.09686868  -0.56244641   0.24786474  -0.16936834 -0.0014793687 
  706000   0.10146856  -0.56289933   0.24173741  -0.16905304 -0.001077426 
  707000  0.097106854  -0.56335213   0.24671473  -0.17106703 -0.0011535479 
  708000  0.099032543  -0.56430845   0.24516194  -0.17068939  -0.00116438 
  709000  0.099155774   -0.5643627   0.24452379  -0.17119706 -0.00081524844 
  710000  0.097837454  -0.56311498    0.2466503  -0.16979909 -0.0011852603 
  711000   0.09768707  -0.56408574   0.24572386  -0.17192173 -0.0024398258 
  712000  0.098043923  -0.56494803   0.24358973  -0.17438319 -0.00055478762 
  713000   0.10269306  -0.56427116   0.24121014  -0.16911651 -0.0019066002 
  714000   0.10173605  -0.56450088   0.24268066  -0.16931034 -0.0017376933 
  715000  0.099443794  -0.56404733   0.24758982   -0.1673839 -0.0025728122 
  716000  0.099856831  -0.56355631    0.2464863  -0.16737722 -0.0019145384 
  717000   0.09913453  -0.56395411   0.24817512  -0.16716899 -0.0020873581 
  718000  0.099097093  -0.56478883   0.24707018  -0.16916476 -0.001306277 
  719000   0.10068512  -0.56383345   0.24519467  -0.16770433  -0.00104601 
  720000   0.10216255  -0.56335729   0.24298364  -0.16722442 -0.0020732324 
  721000  0.098976327  -0.56374165   0.24831693  -0.16705187 -0.0016784815 
  722000  0.096837118  -0.56389568   0.25137058  -0.16735909 -0.0019060968 
  723000  0.095866037  -0.56344841   0.25077021  -0.16896791 -0.0016083449 
  724000  0.098707038  -0.56623184   0.24633426  -0.17192842 -0.0014403342 
  725000   0.09798824  -0.56396597   0.24546034    -0.171614 -0.0012718822 
  726000  0.098710706  -0.56264617   0.24260146  -0.17207005 -0.0011150933 
  727000  0.097464143  -0.56204151   0.24394212  -0.17199343 -0.00093875453 
  728000  0.097148697  -0.56291443   0.24741056  -0.16987078 -0.0011583096 
  729000  0.097682558  -0.56333299   0.24765594  -0.16924366 -0.0016104725 
  730000  0.097307887  -0.56295765   0.24900432   -0.1680816 -0.0016159234 
  731000  0.099212343  -0.56339928   0.24474431  -0.16992832 -0.00082755589 
  732000  0.098196963  -0.56348013   0.24740737  -0.16886824 -0.0015114498 
  733000   0.09647439  -0.56370785   0.25110154  -0.16798405 -0.0018926445 
  734000    0.1011765  -0.56323525   0.24558475  -0.16597943 -0.002797224 
  735000     0.101746  -0.56432916    0.2454188  -0.16638557 -0.0026636204 
  736000    0.1021141  -0.56487173   0.24448164  -0.16731351 -0.0013398818 
  737000   0.10135516  -0.56354419   0.24543603  -0.16616927 -0.0016463366 
  738000  0.099736797  -0.56366639   0.24807222  -0.16608133 -0.0023329269 
  739000   0.10000465  -0.56459908   0.24601511   -0.1686696 -0.0009504384 
  740000   0.10247079   -0.5635622   0.24202124  -0.16792965 -0.0026598239 
  741000   0.10021724   -0.5650117   0.24503597  -0.16974266 -0.00056003171 
  742000  0.096537877   -0.5651459   0.24916796  -0.17126051 -0.0017024975 
  743000  0.097770077  -0.56320262   0.24629896  -0.17033907 -0.0025564591 
  744000   0.09830104   -0.5645174   0.24649748  -0.17065938 -0.0016719558 
  745000  0.099958922   -0.5644957   0.24343843  -0.17121145 -0.0015477532 
  746000  0.097676214  -0.56250037   0.24718062  -0.16889586 -0.00031728453 
  747000  0.096568898  -0.56323411   0.24822563  -0.17024454 -0.0026543845 
  748000  0.099990387  -0.56196165   0.24327641  -0.16879224 -0.002552128 
  749000   0.09768737  -0.56163127   0.24532173  -0.16986894 -0.0017964311 
  750000   0.10109472  -0.56484064    0.2431574  -0.17013477 -0.0018208312 
  751000  0.099373077  -0.56257246    0.2435276  -0.17007726 -0.0014453741 
  752000   0.10001133  -0.56364777   0.24305251  -0.17067087 -0.00058155677 
  753000   0.10037142  -0.56398168    0.2419405  -0.17157698 -0.0013185344 
  754000  0.099188909  -0.56471715   0.24462905  -0.17139658 -0.0014596919 
  755000   0.10083916  -0.56325418   0.23979793  -0.17229088 -0.0019022758 
  756000  0.099378548  -0.56477588   0.24282801  -0.17297207 -0.0020825296 
  757000  0.097920176  -0.56403429   0.24537846  -0.17186624 -0.0013759578 
  758000   0.10159466  -0.56435544   0.24057271   -0.1714848 -0.00040635317 
  759000   0.10123907  -0.56416064   0.24130115  -0.17109463 -0.0011731656 
  760000   0.10087783  -0.56325371   0.24110965  -0.17092072 -0.001365356 
  761000  0.097103344  -0.56344824   0.24616239  -0.17172074 -0.0020971551 
  762000  0.098223199  -0.56386899   0.24313262  -0.17349253 -0.0010023654 
  763000  0.097412412  -0.56313269   0.24574141  -0.17136286 -0.0020844467 
  764000   0.09798896   -0.5638831   0.24561776  -0.17137263 -0.0015318861 
  765000  0.098980671  -0.56224396   0.24348301  -0.17038159 -0.00086747082 
  766000  0.098327222   -0.5645001   0.24469058  -0.17240973 -0.00081105333 
  767000  0.096694104  -0.56491411   0.24855623  -0.17140625 -0.0015235805 
  768000  0.098572616  -0.56354542    0.2458806  -0.16989716 -0.0017168899 
  769000  0.096968198  -0.56392904    0.2462523  -0.17231423 -0.0012129312 
  770000  0.097219408  -0.56273649   0.24410992  -0.17288747 -0.0021385231 
  771000  0.098526347  -0.56193182   0.24101503  -0.17321849 -0.0011852251 
  772000  0.097782028  -0.56277455   0.24223799  -0.17395406 -0.0016404809 
  773000  0.097855465  -0.56333044   0.24499624  -0.17164161 -0.0022839903 
  774000  0.098018024  -0.56393293    0.2432779  -0.17371875 -0.0013558464 
  775000  0.094478731  -0.56299519   0.24668973  -0.17467484 -0.0016968995 
  776000  0.094835093  -0.56330344   0.24555928  -0.17557933 -0.0015063568 
  777000  0.095358451  -0.56349222   0.24489629  -0.17564655 -0.0020999954 
  778000  0.097602623   -0.5642027   0.24314466  -0.17474448 -0.0020725101 
  779000  0.096544131  -0.56424013   0.24500897  -0.17450435 -0.0010066553 
  780000  0.094926357  -0.56313873   0.24620403  -0.17463306 -0.00076904257 
  781000  0.093938701   -0.5621724   0.24487126  -0.17648007 -0.0006541072 
  782000   0.09399262  -0.56234381   0.24586019  -0.17558172 -0.001482775 
  783000  0.092767518  -0.56107569   0.24702075  -0.17498956 -0.0021216072 
  784000  0.093738605   -0.5623332   0.24702476  -0.17478733 -0.00011291488 
  785000  0.091726781  -0.56126142   0.24816954  -0.17558664 -0.0014409254 
  786000  0.092381978  -0.56481002   0.24873457  -0.17758803 -0.0019287203 
  787000  0.095374561  -0.56125351   0.24491918   -0.1733608 -0.0032879621 
  788000  0.098024313  -0.56318215   0.24429729  -0.17193916 -0.0021935556 
  789000  0.095008225  -0.56275899   0.24930962  -0.17102501 -0.00016507238 
  790000  0.099786383  -0.56334409   0.24547693  -0.16827998 -0.0017931137 
  791000  0.098253862  -0.56370597   0.24593942  -0.17047673 -0.0021188091 
  792000   0.10026223  -0.56418406   0.24446248  -0.16942108 -0.00060451167 
  793000  0.099171281  -0.56306697   0.24327372  -0.17112816 -0.0016358023 
  794000   0.10013595  -0.56337739   0.24323596  -0.17003022 -0.0015009323 
  795000  0.098773038  -0.56218737   0.24266545  -0.17145381 -0.0015337611 
  796000  0.099654011  -0.56451973   0.24415736  -0.17097363 -0.00090497171 
  797000  0.098719977  -0.56384483   0.24549112  -0.17036515 -0.0018656615 
  798000  0.097888176  -0.56288325   0.24621595  -0.16992567 -0.00063758662 
  799000  0.095345588  -0.56217932   0.24771122    -0.171538 -0.0024588105 
  800000  0.098708212  -0.56339033   0.24306468  -0.17235474 -0.0025200844 
  801000  0.098483129  -0.56126277    0.2428404  -0.17078886 -0.0026139231 
  802000  0.098634644  -0.56354546   0.24331764  -0.17236718 -0.00061837512 
  803000  0.093754922  -0.56218931    0.2484887  -0.17315504 -0.0027330024 
  804000  0.094140994  -0.56417079   0.24808914  -0.17495733 -0.0024000383 
  805000  0.097837442   -0.5653112   0.24362938  -0.17501624 -0.001524783 
  806000  0.096938397    -0.566533   0.24389832  -0.17731684 -0.00028220873 
  807000  0.093767376  -0.56415551   0.24892815  -0.17466311 -0.001462761 
  808000  0.098506064  -0.56540737   0.24363234  -0.17410714 -0.0018143049 
  809000    0.1000847  -0.56518241    0.2412595  -0.17388853 -0.00080162281 
  810000  0.096172747  -0.56343439   0.24674709  -0.17251723 -0.0015114669 
  811000  0.098498371  -0.56365911   0.24191806  -0.17408469 -0.0011531941 
  812000  0.098764546  -0.56271934   0.24312246   -0.1715415 -0.001538095 
  813000  0.097766717  -0.56356819   0.24629509  -0.17071354 -0.0018180245 
  814000  0.096762333  -0.56269542   0.24613532  -0.17150619 -0.0010546192 
  815000  0.099291382  -0.56362425   0.24210999  -0.17266912 -0.0019877575 
  816000  0.097563978  -0.56339864    0.2458789  -0.17126411 -0.0012987132 
  817000  0.097302267  -0.56296611   0.24409949  -0.17300331 -0.0011758677 
  818000  0.095306951  -0.56564533   0.24686092  -0.17591223 -0.0017620672 
  819000  0.096172083  -0.56336582   0.24486991  -0.17432683 -0.001404126 
  820000  0.098423032  -0.56331776   0.24432361  -0.17145073 -0.0020501446 
  821000  0.098653011  -0.56341691   0.24526238  -0.17026636 -0.00045799288 
  822000  0.096321872  -0.56189462    0.2470383   -0.1704627 -0.0011722715 
  823000   0.10024355  -0.56417011    0.2432976      -0.1706 -0.0013062094 
  824000  0.098615501  -0.56213251   0.24413016  -0.17017041 -0.0023976037 
  825000   0.09720993  -0.56289857   0.24720952  -0.16996417 -0.0021001181 
  826000  0.099269199  -0.56405175   0.24333932  -0.17190055 -0.00039913156 
  827000  0.098203544  -0.56273088   0.24545233  -0.17006416 -0.00021661941 
  828000  0.099044803  -0.56530589   0.24483066  -0.17199973 -0.00083683379 
  829000   0.10062312  -0.56335244   0.24224912   -0.1702618 -0.0010463847 
  830000   0.09787581  -0.56329308   0.24598127  -0.17058873 -0.0015632964 
  831000  0.097097882  -0.56312747    0.2481024  -0.16946815 -0.0023183441 
  832000  0.099806143  -0.56377421   0.24468751  -0.16946989 -0.0013615059 
  833000  0.095736092  -0.56479197   0.25163314  -0.16964334 -0.0017857783 
  834000  0.097975588  -0.56407273   0.24701785  -0.17018222 -0.00083067561 
  835000   0.09823766  -0.56401949   0.24700572  -0.16974824 -0.0021149759 
  836000   0.10101591  -0.56388268    0.2415868  -0.17086554 -0.0010080879 
  837000  0.096195729  -0.56367569    0.2505425  -0.16892867 -0.0024402768 
  838000   0.09853015  -0.56429006   0.24789633  -0.16868974 -0.0020166582 
  839000   0.10048718  -0.56325105   0.24549731  -0.16711602 -0.0014203156 
  840000  0.095636978  -0.56573758   0.25245361  -0.16991706 -0.0015588731 
  841000   0.10050083   -0.5642889   0.24474355  -0.16888717 -0.0019185857 
  842000   0.10082557   -0.5652719   0.24437884  -0.16974805 -0.00088094916 
  843000  0.099779939  -0.56507639   0.24601354  -0.16948533 -0.00039111189 
  844000  0.099469362  -0.56449234   0.24550729  -0.16987311 -0.0016237033 
  845000  0.098479881  -0.56367227   0.24808867  -0.16795496 -0.00088245118 
  846000  0.098618335  -0.56238775   0.24644532  -0.16810624 -0.0020760153 
  847000   0.10051883  -0.56358966   0.24450063  -0.16840385 -0.001611791 
  848000   0.10044242  -0.56400306   0.24393098  -0.16950144 -0.0012617297 
  849000  0.096924635  -0.56389175   0.24620275   -0.1723918 -0.00061286344 
  850000  0.099071722  -0.56344813   0.24195399  -0.17297829 -0.0019407831 
  851000  0.096360046   -0.5625476   0.24512697  -0.17296978 -0.0024346975 
  852000  0.097287351  -0.56321975   0.24425212  -0.17312668 -0.0021396024 
  853000  0.097920569  -0.56332126   0.24350106  -0.17303001 -0.0017135852 
  854000  0.099637292  -0.56436974   0.24086288  -0.17414317 -0.0012758754 
  855000  0.095803604  -0.56321625   0.24486597  -0.17473359 -0.0019397912 
  856000  0.099121517  -0.56362168   0.24204975  -0.17298144 -0.0010609286 
  857000  0.098998276  -0.56285759   0.24299662  -0.17145522 -0.0015417152 
  858000   0.10319616  -0.56405218    0.2411663  -0.16818719 -0.0012387964 
  859000   0.10274012  -0.56420295   0.24308482  -0.16710309 -0.00073337431 
  860000   0.10079125  -0.56481572    0.2451279  -0.16859427 -0.0012269213 
  861000   0.10184365  -0.56350344   0.24347542  -0.16735685 -0.0015276895 
  862000  0.099656283  -0.56396579   0.24616626  -0.16840738 -0.0016806055 
  863000   0.10059688  -0.56380231   0.24541955  -0.16758058 -0.001760921 
  864000   0.10135586  -0.56369715   0.24407835  -0.16767885 -0.00063569852 
  865000   0.10064774   -0.5629656   0.24557428   -0.1665129 -0.0018187177 
  866000   0.10059899  -0.56381294   0.24499036  -0.16801725 -0.0015926613 
  867000   0.10169767  -0.56305824   0.24350617  -0.16709974 -0.0015043863 
  868000  0.098496205  -0.56416245   0.24627602  -0.17023333 -0.0017414547 
  869000  0.099998771  -0.56300391   0.24379115  -0.16930719 -0.0021838514 
  870000   0.10081242  -0.56442051   0.24331434   -0.1699809 -0.0021145547 
  871000  0.097906306   -0.5630878   0.24320833  -0.17311066 -0.00082077048 
  872000  0.099563808  -0.56295541   0.24411234  -0.16958955 -0.0015377481 
  873000  0.094653081  -0.56400854   0.24900153  -0.17311502 -0.0021012645 
  874000  0.096058173  -0.56497183   0.24718381   -0.1737897 -0.0019093504 
  875000  0.097591169  -0.56461782   0.24471093   -0.1736105 -0.00076481542 
  876000  0.096402422  -0.56350529   0.24482618  -0.17416474 -0.00085016221 
  877000  0.096932337  -0.56320061   0.24208059  -0.17581127 -0.00072639413 
  878000  0.096643665  -0.56402557   0.24478586   -0.1743637 -0.0019862557 
  879000  0.096767679  -0.56406523   0.24387409  -0.17512922 -0.0013064745 
  880000  0.096692804  -0.56293816    0.2459808  -0.17200769 -0.0017355662 
  881000  0.096088596  -0.56237537   0.24578173  -0.17254972 -0.0015837562 
  882000  0.099235397  -0.56350415   0.24584721  -0.16889573 -0.0019426987 
  883000  0.099906881  -0.56349492   0.24481082  -0.16891629 -0.0018878738 
  884000   0.10136344  -0.56334944   0.24316568  -0.16823245 -0.0017716512 
  885000  0.099695446  -0.56366543   0.24682004  -0.16739454 -0.0020047281 
  886000     0.100871  -0.56642807   0.24429719  -0.17091777 -0.0016217483 
  887000  0.099144571  -0.56163737   0.24360131    -0.169411 -0.0020871195 
  888000  0.098200036  -0.56343377   0.24760617  -0.16861847 -0.00065625347 
  889000  0.099414598  -0.56411889   0.24406289  -0.17102615 -0.0012260315 
  890000  0.099602293  -0.56315125    0.2441931  -0.16964693 -0.0021021916 
  891000  0.097597786  -0.56415982   0.24837998  -0.16947353 -0.0022469671 
  892000   0.10018566  -0.56400743   0.24368811   -0.1701336 -0.00074080859 
  893000  0.099037296  -0.56303555   0.24400138  -0.17056993 -0.002503564 
  894000  0.098947961  -0.56187548   0.24471455  -0.16883061 -0.0017434542 
  895000  0.099306748  -0.56340457   0.24582059  -0.16871581 -0.00077406532 
  896000  0.099407749  -0.56068732   0.24371589  -0.16795186 -0.0012809985 
  897000  0.099068486  -0.56377815   0.24777668  -0.16749047 -0.001564626 
  898000   0.10124002  -0.56478928   0.24434188  -0.16868111 -0.001356521 
  899000  0.099629595  -0.56276926    0.2431459  -0.17027122 -0.0012792397 
  900000  0.099375778  -0.56329106   0.24442344  -0.16989597 -0.0014930679 
  901000  0.099385679   -0.5631996   0.24514711    -0.169066 -0.00033293482 
  902000  0.099591438  -0.56344281   0.24408553  -0.17006234 -0.0015869732 
  903000  0.097108859  -0.56302636   0.24605471  -0.17139828 -0.0016508175 
  904000  0.097347073  -0.56200998   0.24701354  -0.16906597 -0.0025425529 
  905000  0.099504121  -0.56205826   0.24240876  -0.17048545 -0.0019680836 
  906000  0.097208798   -0.5635199   0.24501859  -0.17277812 -0.002133055 
  907000  0.096107896  -0.56292872   0.24574954  -0.17310633 -0.0019714501 
  908000  0.097574093  -0.56503916   0.24411984  -0.17464853 -0.0014672402 
  909000  0.095743627  -0.56270336   0.24625424  -0.17292233 -0.0011637572 
  910000  0.096254089  -0.56395127   0.24485247  -0.17480679 -0.0012874249 
  911000  0.098518958  -0.56345073   0.24164455  -0.17411896 -0.0019651577 
  912000   0.09956346  -0.56408174   0.24319907  -0.17162967 -0.0016467259 
  913000    0.1004371  -0.56393762   0.24321702  -0.17015794 -0.0020480799 
  914000  0.098669594  -0.56106715   0.24252287  -0.17063125 -0.0021411508 
  915000    0.1009112  -0.56186513   0.23997012  -0.17062163 -0.0014452213 
  916000  0.098138995  -0.56541773   0.24441789  -0.17388221 -0.00098229555 
  917000  0.097765006  -0.56265193   0.24611746  -0.16997749 -0.0011605884 
  918000   0.09722141  -0.56354475   0.24610152  -0.17170114 -0.002290185 
  919000  0.095428145  -0.56417539   0.24936872  -0.17175282 -0.0024764762 
  920000  0.098203887  -0.56375009    0.2456664  -0.17086878 -0.0017343772 
  921000  0.097165292  -0.56332064   0.24678707  -0.17087561 -0.0010228886 
  922000  0.098973008  -0.56309551   0.24367467  -0.17105296 -0.0013438072 
  923000  0.096548917  -0.56336104   0.24669951  -0.17192755 -0.0018182913 
  924000    0.0998283  -0.56506301   0.24165938  -0.17375361 -0.0018773416 
  925000  0.098684519  -0.56287362   0.24362786  -0.17131036 -0.00058230777 
  926000   0.09761492  -0.56369703   0.24378465  -0.17358038 -0.0011291812 
  927000  0.098675085  -0.56403582   0.24398753  -0.17212703 -0.00095172246 
  928000  0.098271084  -0.56110493   0.24225575  -0.17153354 -0.0027439682 
  929000   0.10003742  -0.56350288   0.24099057  -0.17254881 -0.0018059715 
  930000  0.096184539  -0.56205571   0.24525867  -0.17260929 -0.0016544506 
  931000   0.09685394  -0.56249935   0.24319578  -0.17411234 -0.0011246182 
  932000  0.097107886  -0.56354329   0.24255156  -0.17541981 -0.0017999287 
  933000  0.095941771  -0.56249354   0.24525808  -0.17341164 -0.0022944223 
  934000  0.097751817  -0.56350655   0.24372102  -0.17324832 -0.0024290965 
  935000  0.099881533  -0.56419802   0.24253748  -0.17193073 -0.00069678482 
  936000  0.099161146  -0.56365158   0.24191993  -0.17308175 -0.001678952 
  937000  0.098250205  -0.56349053   0.24235856  -0.17384764 -0.0020165676 
  938000   0.10007313  -0.56410083   0.24267775  -0.17140604 -0.001874424 
  939000  0.096161183  -0.55985747   0.24462528  -0.17107945 -0.0018893228 
  940000  0.099265889  -0.56194214   0.24118877  -0.17194645 -0.001562904 
  941000   0.10001125  -0.56379934   0.24165865  -0.17221642  -0.00161255 
  942000  0.098580117  -0.56159566   0.24221886   -0.1715979 -0.0010026239 
  943000   0.09554861   -0.5614936   0.24614041  -0.17211874 -0.00041568901 
  944000  0.096600922  -0.56242657   0.24510001  -0.17251462 -0.00079515594 
  945000  0.097626001  -0.56241412   0.24630786  -0.16975765 -0.00054466156 
  946000  0.097191695   -0.5613763   0.24547293  -0.17020582 -0.00090068998 
  947000  0.096771201  -0.56302752   0.24712282  -0.17083751 -0.0019026127 
  948000  0.097883194  -0.56297994   0.24422807  -0.17201772 -0.00094154449 
  949000  0.096139723  -0.56090817   0.24485248  -0.17193512 -0.0005511716 
  950000  0.096984526  -0.56117087   0.24407063  -0.17171326 0.00012916669 
  951000  0.096020224  -0.56181277   0.24566662  -0.17220472 -0.0014539285 
  952000  0.097035701  -0.56381593   0.24406147  -0.17429076 -0.00026477611 
  953000  0.097332647  -0.56532577   0.24274582   -0.1766711 -0.0021026389 
  954000  0.099087343   -0.5633675   0.24238787  -0.17244036 -0.0012703055 
  955000  0.097930652  -0.56138279   0.24340366  -0.17117383 -0.0023972242 
  956000  0.096808939  -0.56387647   0.24529508  -0.17345762 -0.0012615592 
  957000  0.099093804   -0.5629343   0.24122496  -0.17316038 -0.0016086817 
  958000  0.096717387  -0.56238572   0.24419563  -0.17320356 -0.0024198237 
  959000   0.09893421   -0.5653679   0.24109667  -0.17596152 -0.0010656969 
  960000   0.09519929  -0.56337442   0.24567367  -0.17498996 -0.0010670942 
  961000  0.096283255  -0.56431551   0.24410623  -0.17587355 -0.00073823163 
  962000   0.09497237   -0.5626976   0.24604096  -0.17428602 -0.00061796072 
  963000   0.09496283  -0.56426717   0.24610253  -0.17580832 -0.0017708248 
  964000  0.094999149  -0.56394576   0.24728693  -0.17424807 -0.0022410402 
  965000  0.095901808  -0.56427916   0.24266235   -0.1778529 0.00013107833 
  966000  0.095538465  -0.56398906   0.24369115  -0.17707867 -0.0019861921 
  967000   0.09617471  -0.56374582   0.24597612  -0.17359669 -0.0014134815 
  968000  0.098152378  -0.56434898   0.24497902  -0.17223228 -0.00064808082 
  969000  0.096040021  -0.56358833   0.24944771  -0.17016951 -0.0010847785 
  970000  0.099469946  -0.56286638   0.24410917   -0.1696444 -0.00071675425 
  971000   0.09925136  -0.56432524   0.24398472  -0.17155538 -0.0020900419 
  972000  0.098289379  -0.56494097   0.24683806  -0.17075985 -0.001653076 
  973000  0.099146173  -0.56475697   0.24536914  -0.17076037 -0.0017597261 
  974000   0.09934779  -0.56299349   0.24392499  -0.17013881 -0.00098881239 
  975000  0.098519901  -0.56388807   0.24349256  -0.17270688 -0.001178831 
  976000  0.097874516  -0.56323301     0.243567  -0.17294486  -0.00134308 
  977000  0.098193133   -0.5638798   0.24303036  -0.17365065 -0.0015667173 
  978000  0.093653231  -0.56151744   0.24582884  -0.17529546 -0.0017861687 
  979000  0.096891858  -0.56438153   0.24422868  -0.17490478 -0.0019209029 
  980000  0.095231956  -0.56410691   0.24543753  -0.17590963 -0.0011591426 
  981000  0.094759713  -0.56323804   0.24609679  -0.17508942 -0.00093552832 
  982000  0.095012735  -0.56217298   0.24449039  -0.17525147 -0.001723682 
  983000  0.095928389  -0.56227978   0.24284279  -0.17563322 -0.0018316335 
  984000  0.094276353  -0.56235848   0.24575302  -0.17527822 -0.0025886027 
  985000  0.095010554  -0.56336006   0.24419838  -0.17673383 -0.001758596 
  986000  0.094765963  -0.56397289   0.24202823  -0.17988346 -0.0009477754 
  987000  0.095600708  -0.56405349    0.2455384  -0.17520254 -0.002004932 
  988000  0.097216922   -0.5640093     0.243617  -0.17465694 -0.0023546402 
  989000  0.097764737  -0.56249054   0.24282627  -0.17310768 -0.00072830739 
  990000  0.096252777  -0.56277427   0.24524848  -0.17323574 -0.0026099091 
  991000  0.098769558  -0.56225015   0.24265057   -0.1715367 -8.6240474e-05 
  992000  0.095811704  -0.56423456    0.2487903  -0.17181542 -0.002552489 
  993000  0.094396398  -0.56271608   0.24922144  -0.17198745 -0.0026648292 
  994000  0.097196389  -0.56279201   0.24320791  -0.17387951 -0.0026623774 
  995000   0.09632496   -0.5624435    0.2449909  -0.17305435 -0.0002462393 
  996000  0.096117959  -0.56360046   0.24575186  -0.17376066 -0.00050262546 
  997000  0.098219626  -0.56410518   0.24313372  -0.17373296 -0.00020511871 
  998000  0.098909905  -0.56269818   0.24232556  -0.17209935 -0.0016358339 
  999000    0.0984651   -0.5640028   0.24357163  -0.17282469 -0.0019671176 
 1000000  0.094918256  -0.56364772   0.24699526  -0.17436296 -0.0018829448 
Loop time of 88.3944 on 1 procs for 1000000 steps with 1620 atoms

Performance: 1954875.742 tau/day, 11312.938 timesteps/s
99.9% CPU use with 1 MPI tasks x no OpenMP threads

MPI task timing breakdown:
Section |  min time  |  avg time  |  max time  |%varavg| %total
---------------------------------------------------------------
Pair    | 13.9       | 13.9       | 13.9       |   0.0 | 15.73
Bond    | 0.50541    | 0.50541    | 0.50541    |   0.0 |  0.57
Neigh   | 23.856     | 23.856     | 23.856     |   0.0 | 26.99
Comm    | 9.5528     | 9.5528     | 9.5528     |   0.0 | 10.81
Output  | 0.097925   | 0.097925   | 0.097925   |   0.0 |  0.11
Modify  | 36.001     | 36.001     | 36.001     |   0.0 | 40.73
Other   |            | 4.481      |            |       |  5.07

Nlocal:    1620 ave 1620 max 1620 min
Histogram: 1 0 0 0 0 0 0 0 0 0
Nghost:    538 ave 538 max 538 min
Histogram: 1 0 0 0 0 0 0 0 0 0
Neighs:    49 ave 49 max 49 min
Histogram: 1 0 0 0 0 0 0 0 0 0

Total # of neighbors = 49
Ave neighs/atom = 0.0302469
Ave special neighs/atom = 0.0234568
Neighbor list builds = 49582
Dangerous builds = 1512
Total wall time: 0:01:28
