LAMMPS (31 Mar 2017)
#temperature in reduced units
variable temp equal 2.0

#set up basic simulation stuff
dimension 2
units		lj
atom_style	molecular
boundary        p p p

# pair and bond styles
pair_style      lj/cut 1.12246
bond_style      fene

# Read in initial configuraiton
read_data       2d_chain.data
  orthogonal box = (-20 -20 -2) to (20 20 2)
  1 by 1 by 1 MPI processor grid
WARNING: Atom style in data file differs from currently defined atom style (../read_data.cpp:455)
  reading atoms ...
  40 atoms
  scanning bonds ...
  1 = max bonds/atom
  reading bonds ...
  39 bonds
  2 = max # of 1-2 neighbors
  2 = max # of 1-3 neighbors
  4 = max # of 1-4 neighbors
  6 = max # of special neighbors

# Lennard Jones short cutoff
pair_style      lj/cut 1.12246
pair_coeff      1 1 1.0 1.0 1.12246

# FENE type bond
bond_coeff      1 30.0 1.5 1.0 1.0
special_bonds   fene
  2 = max # of 1-2 neighbors
  2 = max # of special neighbors

# time stepping, thermostat and 2d
fix integrator  all nve
fix dynamics    all langevin ${temp} ${temp} 1.0 252352
fix dynamics    all langevin 2 ${temp} 1.0 252352
fix dynamics    all langevin 2 2 1.0 252352
fix run2d       all enforce2d

# print out thermodynamic information regularly
thermo          10000

# equilibrate for some time
run             5000000
Neighbor list info ...
  update every 1 steps, delay 10 steps, check yes
  max neighbors/atom: 2000, page size: 100000
  master list distance cutoff = 1.42246
  ghost atom cutoff = 1.42246
  binsize = 0.71123, bins = 57 57 6
  1 neighbor lists, perpetual/occasional/extra = 1 0 0
  (1) pair lj/cut, perpetual
      attributes: half, newton on
      pair build: half/bin/newton
      stencil: half/bin/2d/newton
      bin: standard
Per MPI rank memory allocation (min/avg/max) = 5.69 | 5.69 | 5.69 Mbytes
Step Temp E_pair E_mol TotEng Press 
       0            0            0    19.705412    19.705412   -0.0460389 
   10000    2.2029071 -0.049324644    20.503356    22.601866 -0.057951759 
   20000    2.5237759            0    20.653666    23.114347  -0.09122019 
   30000    2.6967212 -0.056627127    20.539623    23.112299  0.068840976 
   40000    1.8595052 -0.019077169    20.780433    22.574373 -0.018466232 
   50000    2.0297286            0    21.143898    23.122883  0.045150236 
   60000    1.8096909 -0.053408488    20.922732    22.633772   0.16627296 
   70000     2.387611 -0.067540526    20.667934    22.928314  -0.05542989 
   80000    2.0696037 -0.069929165    20.663979    22.611914 -0.025364413 
   90000    1.7955849 -0.030352386    20.724177     22.44452   0.23884247 
  100000     2.099612  -0.03493828    20.458879    22.471062  0.013646603 
  110000    2.0302765 -0.024354195    20.791523    22.746688 -0.054288503 
  120000    2.0377501 -0.038612515     20.72537    22.673564  -0.06727186 
  130000    2.4704003 -0.024841184    20.797564    23.181363 -0.053037478 
  140000    2.2963697 -0.036258725    20.816706    23.019408  0.069189651 
  150000    1.4687257   0.07008693    20.807697    22.309792  0.033656014 
  160000    1.5754446 -0.029456493     21.27352    22.780122  0.052254744 
  170000    2.2713483 -0.014716897    20.734234    22.934081  0.036936599 
  180000    1.7860394 -0.074509191     21.02616     22.69304 -0.076884988 
  190000    2.0278036 -0.002903066    20.587024     22.56123  -0.05348145 
  200000    1.7876613 -0.010481887    20.544249    22.276737 -0.063905769 
  210000    1.9109384            0    20.533703    22.396868 0.0081013443 
  220000    2.3791499  0.018798382    20.867265    23.205735  0.011887458 
  230000    1.3959115 -0.046266181    20.715262    22.030009 -0.047980318 
  240000    2.0238299            0    20.747744    22.720978  0.052833496 
  250000    2.0388278 -0.042217743    20.759087    22.704727 -0.012420158 
  260000    2.4121865  0.011631416    20.331218    22.694732  0.070706554 
  270000    2.1135798 -0.034289757    20.756314    22.782765   0.17253394 
  280000    1.7959876 -0.024568893     20.46037    22.186889   0.15081729 
  290000    2.0347762            0    20.966601    22.950508 -0.0056877526 
  300000    1.8495924 -0.061064937     21.28384    23.026128 0.0062958802 
  310000    2.0035858   0.10573089    20.608936    22.668163   0.12691254 
  320000    1.6756293   0.15148531     20.58832    22.373543  0.020574274 
  330000    2.0211669 -0.024700216    20.885036    22.830974  0.026437967 
  340000    2.0263245 -0.043515129    21.239942    23.172093  0.045470103 
  350000    2.2553941 -0.077640162    20.616352    22.737721 -0.051265158 
  360000    1.7706789  -0.02279384    20.769101    22.472719 -0.017725313 
  370000    1.7133852 -0.014193055    20.989546    22.645904 -0.084831871 
  380000    1.7673856 -0.030572814    20.533222     22.22585  0.093011229 
  390000    2.0319927  -0.04621499    20.883488    22.818466  0.068515647 
  400000    1.8163778 -0.025888304    20.454595    22.199675 0.0013245972 
  410000     2.005856 -0.089451232    20.863693    22.729952  -0.12310382 
  420000    2.0470842 -0.058161491    20.633565     22.57131  0.080877478 
  430000    2.0219408            0    20.724573    22.695965  0.062963068 
  440000    1.8142321  0.015467538    20.392434    22.176778  0.084280328 
  450000    2.4002048 -0.045052347    21.156661    23.451808  -0.05564556 
  460000    1.6155527 -0.049385755    20.911912     22.43769 -0.0090344201 
  470000    2.3959012            0    20.732203    23.068207  0.021646609 
  480000    1.8973209 -0.044839287    20.613481     22.41853  0.095633736 
  490000    2.4261369 -0.042615027    20.679196    23.002064  0.095561875 
  500000    1.9656297 -0.031769018    20.476307    22.361027 -0.077151522 
  510000     2.059932 0.0075029685    20.516919    22.532855 -0.051939781 
  520000    2.7521301 -0.010197781    21.343049    24.016178   0.10579323 
  530000    2.5366447 -0.020208573    20.892278    23.345298  -0.20070923 
  540000    2.4230438  -0.02414979    20.935895    23.274213  -0.02530335 
  550000    1.9960849 -0.064191092    21.150513    23.032505  0.048468764 
  560000    2.1296073 -0.024870246    20.678133     22.72963  0.051263709 
  570000    2.1067808  -0.10309873    20.838156    22.789169  0.038947867 
  580000     1.651952 -0.093133459    20.428569    21.946089 -0.037373806 
  590000    1.5661595 0.0068480097    20.554543    22.088397  0.014488726 
  600000    1.7370078 -0.024413543    20.556996    22.226165 -0.042364746 
  610000    2.2318291 -0.0079881449    20.673412    22.841457 -0.0095503124 
  620000    2.0703198 -0.089076036    20.850408    22.779894 0.00026552422 
  630000    1.6897113 -0.090186768    20.903189    22.460471  -0.12302148 
  640000     1.821367 -0.024878159    21.291366    23.042321  -0.13446829 
  650000    1.5115485  -0.06867328    20.436962    21.842049 -0.091339578 
  660000      1.92376  -0.02798075    20.571032    22.418718 -0.069662644 
  670000    2.0700431 -0.015751832    20.892004    22.894545 -0.029577356 
  680000    1.8922767 -0.041173629      21.0391    22.842896 -0.039521197 
  690000    2.7230083 -0.019889225    20.615626    23.250669  0.067658286 
  700000    2.0551847 -0.086321618    20.727089    22.644572    0.1154103 
  710000     2.345953 -0.030640447    20.792995    23.049658 -0.079678084 
  720000     1.792643 -0.049529336    21.072677    22.770974  0.082430853 
  730000    2.0303195 -0.089805882    21.072778    22.962534  -0.18006292 
  740000    1.9603714            0    20.640627    22.551989 -0.010419829 
  750000    2.3445077            0    21.149621    23.435516 -0.083900606 
  760000    1.8404875 -0.0049288116    21.123882    22.913429  0.058697636 
  770000    2.4826875 -0.021426252    20.935341    23.334536  0.057366639 
  780000    2.8289943 -0.045768752    20.510655    23.223156 -0.065967014 
  790000    1.9656547 -0.0076431531    21.036342    22.945212 -0.067035861 
  800000    1.6880848 -0.035366697     20.69068    22.301196  0.028945308 
  810000    2.5773778 -0.057657541    20.722703    23.177988 -0.043946163 
  820000    2.5870434 0.0055097399     20.61043    23.138307  0.087502319 
  830000    2.5853346 -0.046742131    20.736834    23.210793  0.013880672 
  840000    1.9394852 -0.056186737     20.94909    22.783901  0.001251865 
  850000    1.8175167 -0.067010442    20.442625    22.147693 -0.0087417411 
  860000    2.1211597            0    20.827969    22.896099    0.1228007 
  870000    2.1608524 -0.054082174    20.831769    22.884517  0.091628947 
  880000    2.4102866  0.084606685    20.686018    23.120654  0.047337778 
  890000    2.2028951 -0.043610166    20.563739    22.667951 -0.016390908 
  900000    1.8634427 -0.065851495     20.92026    22.671265 -0.070437698 
  910000     2.354347 -0.037613197    20.516859    22.774734   0.10103288 
  920000    2.1893175 -0.048466902    20.882781    22.968899 -0.062315622 
  930000    1.9928591 -0.042781135    21.211216    23.111472   0.15985748 
  940000    2.1729483 -0.019102378    20.718474    22.817996   0.15171655 
  950000    2.6994265 -0.008337123     20.84114    23.464744 -0.018869969 
  960000    2.1668026 -0.015579024    20.601638    22.698692  0.022247041 
  970000    2.0645404 -0.021664061    20.700311    22.691574  0.015990964 
  980000    1.9028638 -0.020479769    20.877131    22.711944   0.16081597 
  990000     1.515442  0.009617973     20.80698    22.294154  0.022523259 
 1000000    2.0165667            0    20.613588    22.579741 -0.030015368 
 1010000     2.151517 -0.045160129    21.158721     23.21129 -0.082298486 
 1020000    2.0084579   0.11117442    20.632635    22.702056  0.029411739 
 1030000    2.1050494   -0.1221624    20.990367    22.920628   0.15043635 
 1040000    1.6646976 -0.098089192    20.771834    22.296825  0.047524643 
 1050000    2.0354573  -0.02482066    20.650816    22.610566   0.14917993 
 1060000    2.3233898 -0.027308455    20.429134    22.667131  0.050931005 
 1070000    2.1573461 -0.065012742    20.469768    22.508168 -0.028568483 
 1080000    2.2326289  0.050904956    21.054049    23.281767 -0.043487681 
 1090000    2.2344517 -0.031396768    20.694486     22.84168 -0.042206728 
 1100000     2.383716  0.052339447    20.553629    22.930092 -0.050718904 
 1110000    1.7627535 -0.027123795    20.885927    22.577488  0.024453816 
 1120000    1.8701394 -0.080488491    20.463869    22.206767 -0.088963732 
 1130000    2.1200406  0.040646933    21.021204     23.12889  0.072980545 
 1140000    1.7640591 -0.074796512    20.586609    22.231771 -0.064766408 
 1150000    1.9756934  -0.05995088    20.915362    22.781713  -0.14925095 
 1160000    2.5782933 -0.080382728    20.565605    22.999058  -0.12301327 
 1170000    2.0053961 -0.020486122    20.346083    22.280858  0.025115679 
 1180000    2.1469049 -0.045443724     20.80966    22.857449 -0.054242701 
 1190000    1.8717744 -0.023985446    20.400322    22.201316 -0.098781946 
 1200000    2.2906579 -0.021648879    20.809511    23.021254 -0.022487904 
 1210000    1.8364099  0.048565283    20.504363    22.343428   0.06679391 
 1220000    2.1743202 -0.034225296    20.572088    22.657825   0.16135655 
 1230000    2.1277307 -0.030006858    20.465837    22.510368  0.095979713 
 1240000    1.7713626 -0.041049734      20.8602    22.546229 -0.039866881 
 1250000    1.8894237 0.0047365364    20.539956     22.38688  0.066707484 
 1260000    2.3066441 -0.045721552    20.680329    22.883586    0.0956112 
 1270000    1.9074114 0.0071909204    21.068956    22.935873  0.028447653 
 1280000    2.0204943  -0.14969869    21.174194    22.994478 -0.019066526 
 1290000    1.6802171            0     20.73288    22.371092 -0.046831088 
 1300000    2.1998383 -0.015174416    20.773935    22.903603 -0.036446383 
 1310000     2.181996            0     20.80989    22.937337  0.019155238 
 1320000    2.1209363 -0.072270815    20.414044    22.409687 -0.031361345 
 1330000    1.9393696 -0.044133525    20.840443    22.687195 -0.056822084 
 1340000     2.257384  0.033126783     20.44809    22.682166  0.097674469 
 1350000    2.1051948 -0.011880052    20.627674    22.668359 0.0036764644 
 1360000    2.4001458 -0.068856992    20.894596    23.165881  -0.12243891 
 1370000    1.6120644  -0.12744572    20.234899    21.679216  0.068450765 
 1380000    2.1973038  0.029039602    20.812721    22.984132 -0.0048641877 
 1390000    1.7054582   0.29160853    20.434206    22.388636   0.14056101 
 1400000    2.5558338   0.22932383    20.933166    23.654428   0.29480646 
 1410000    1.9517683 -0.040087935     20.84958    22.712466  0.037356625 
 1420000    2.1487291   0.03120963     20.56299     22.68921    0.2570927 
 1430000    1.8192193  -0.04575058    21.150415    22.878403   0.08397775 
 1440000    2.5544828  0.059327158    21.071911    23.621859 -0.032783279 
 1450000     1.346945 -0.072284007    20.865596    22.106584  -0.15929377 
 1460000    2.0416102            0    20.594231    22.584801  0.094896143 
 1470000    2.2957239 -0.021975749    21.181599    23.397954  0.042693363 
 1480000     2.118663 -0.091702456    20.749811    22.723805  -0.14533874 
 1490000    2.1208483 -0.012185462     20.63219    22.687832  -0.14179101 
 1500000    2.0061402 -0.044794821    20.898485    22.809677  0.031362779 
 1510000    1.3580143 -0.068420071    20.615851    21.871495  -0.11983771 
 1520000    1.7523647  0.046594971    20.785935    22.541086  0.045470632 
 1530000    2.0781707 -0.046621968    21.125094    23.104689 -0.038709918 
 1540000    2.1707791 0.0018870001    20.746083     22.86448 -0.048351602 
 1550000     1.803204 -0.043484147    20.743442    22.458081  -0.20469127 
 1560000    1.6566103 -0.046717966     20.66399    22.232467  -0.13310574 
 1570000    1.7149661 -0.039476379    20.967225     22.59984  0.097457612 
 1580000    1.7080667   0.13804177    20.776988    22.580395   0.10493767 
 1590000    1.6990316  0.085444412    20.485976    22.227976 -0.068227574 
 1600000    2.1455313 -0.037919581     21.00878    23.062754 -0.077667877 
 1610000     2.477778 -0.0015206999    20.562255    22.976568  0.063302165 
 1620000    1.9984371 -0.046147803    20.566652    22.468981  -0.11556764 
 1630000    1.5686603            0    20.446124    21.975568 -0.086745068 
 1640000     2.250423 -0.023528987    20.681451    22.852084    0.1052284 
 1650000    2.5023881 -0.076869952    20.637353    23.000311 -0.0064421981 
 1660000    2.3901796 -0.042157085    20.791078    23.079346  0.051490444 
 1670000    2.3038916 -0.079638866     20.90392    23.070575 -0.034356184 
 1680000    1.9064994 -0.018769556    20.406802    22.246869  0.050357567 
 1690000    2.2941235   0.21216201     20.41959    22.868523   0.11953119 
 1700000    2.0204821 -0.022730492    20.760437    22.707677 -0.038846371 
 1710000    1.6232702  -0.02495202    21.116576    22.674313  0.099197703 
 1720000    2.3458109 -0.022638689    20.639255    22.903782  0.015709439 
 1730000    1.6913767 -0.046617358    20.890914    22.493389  0.048505799 
 1740000    1.8330487 -0.017971225     21.05512    22.824371  0.045733578 
 1750000    2.4397232 -0.094364565    20.665843    22.950208 0.0026395862 
 1760000    1.9007146 -0.049567633    20.802655    22.606284 -0.074201545 
 1770000    2.4354498 -0.019073107    20.539795    22.895286 -0.065274405 
 1780000    2.1973607 -0.090986735    20.848046    22.899486 -0.096136828 
 1790000    2.3797797 -0.023902834    20.937163    23.233546 -0.027894614 
 1800000    1.9515694 -0.034572992    20.899352    22.767559  0.065511512 
 1810000    2.1322328 -0.036619496    20.605974    22.648281 -0.056513356 
 1820000     2.040662            0     20.71906    22.708706   0.09833971 
 1830000    1.4799892 -0.055725055    20.592114    21.979379  0.021162927 
 1840000    2.1326944            0    20.810253     22.88963 -0.052438627 
 1850000    2.0316129 -0.069615076    20.504159    22.415367  0.049651827 
 1860000    2.1504664 -0.034308806    20.927617    22.990013   0.13956551 
 1870000    2.3333763 0.0016310295    20.541282    22.817955  0.028917279 
 1880000    1.9280017  -0.10476202    20.721314    22.496353  0.055637199 
 1890000    2.0152245 -0.098905011    20.510593    22.376532  0.086782452 
 1900000    1.9349458 -0.045444973    20.708827    22.549954  0.047462149 
 1910000    2.0150805 -0.020332517     20.72173    22.666101 -0.096247841 
 1920000     2.207076 -0.014120929    21.150896    23.288674 -0.010008764 
 1930000    1.9665939 0.0092420278    20.505883    22.432554 -0.036459911 
 1940000    1.9476411 -0.070973858    20.755562    22.583538 -0.047075048 
 1950000    1.8385948 -0.051783619     20.94893    22.689776  0.085988126 
 1960000    2.4751354 -0.026908787    20.846291    23.232639  0.057588893 
 1970000    1.3030676 -0.012612884    20.541345    21.799223  0.029257651 
 1980000    1.5588491 -0.013058817    20.658382    22.165201  0.013144064 
 1990000    2.0781917 -0.070959974    20.836004    22.791281  0.068654918 
 2000000    1.7933696  0.079236505    20.529304    22.357076 0.0058833003 
 2010000    2.2911794 -0.079962503    20.514671    22.668608 -0.037910195 
 2020000    2.0160871 -0.0023440231    20.679426    22.642766 -0.040574602 
 2030000     2.288957 -0.020438324       20.652    22.863295 0.0009176595 
 2040000    2.4403899  -0.04688865    21.240711    23.573203   0.14401794 
 2050000    2.0645729   0.23661529     20.56027    22.809843  0.047468391 
 2060000    2.9717268   0.12521323    20.787906    23.810553  0.095127439 
 2070000     2.197197 -0.076160608    20.629679    22.695785 -0.079329315 
 2080000    2.0256634 -0.011097667    21.278745    23.242669 -0.025128996 
 2090000    1.9538206 -0.061233766    20.708536    22.552277  0.076472594 
 2100000    1.8660834 -0.091548567    20.420455    22.148338   0.12738011 
 2110000    2.2530222 -0.037893446    20.613292    22.772095  0.096853517 
 2120000    2.6298326 -0.047001348    20.649496    23.166582  0.021166836 
 2130000     2.032148 -0.023655942    20.584992     22.54268  -0.10905559 
 2140000    2.0024354 -0.042072558    20.321422    22.231724 -0.045870666 
 2150000    2.3789577  0.008753334    20.615566    22.943803   0.11899828 
 2160000    1.9096798 -0.014705182    21.043802    22.891035 -0.073241843 
 2170000    1.8505324 -0.060515511    20.848368    22.592122 -0.090529019 
 2180000    1.9697833 -0.037428464    20.612645    22.495755  -0.16234916 
 2190000    1.5780991 -0.026217093    20.888264    22.400693    0.0592694 
 2200000    1.8253329 0.00027385363    20.568307     22.34828   0.12960926 
 2210000    1.9222635 -0.00095078269    20.692159    22.565415  0.065317501 
 2220000    1.7789559 -0.058424416    20.285952     21.96201 -0.019204835 
 2230000    2.3771979            0     21.11296    23.430728 -0.028812631 
 2240000    2.4211723 -0.047135788    20.597115    22.910622   0.09457267 
 2250000    1.7647964 -0.099338335    20.721213    22.342551 -0.027955452 
 2260000      2.12166 -0.019357157    21.110872    23.160133    0.1456862 
 2270000    2.2998458            0    20.516873    22.759223  0.096457566 
 2280000    2.1707771   0.13661137    20.343532    22.596651  0.039679514 
 2290000    1.9346915 -0.045634661    20.758767    22.599457  0.010921717 
 2300000    1.9070628 -0.020537353    20.706268    22.545117 -0.079193594 
 2310000    1.9871831 -0.023442779    20.920498    22.834559    0.0202817 
 2320000    1.8502426            0    20.761669    22.565655 -0.059352104 
 2330000    2.0563811 -0.030695259    20.901486    22.875762 -0.053780725 
 2340000    1.9511519 -0.022350066    20.569303    22.449326 -0.019846991 
 2350000    2.0507875 -0.049566832    20.572451    22.522401   0.13667627 
 2360000    2.2290689  -0.01733241    20.634785    22.790795 -0.021194987 
 2370000    2.6125689 -0.024294193    21.133589     23.65655   0.18165653 
 2380000    2.0039215 -0.067147954     20.43845    22.325126   0.11673611 
 2390000    2.4199849            0    20.750855     23.11034 -0.021744562 
 2400000    1.9965651 -0.017935757    20.451405     22.38012 -0.018230937 
 2410000    1.6307812 0.0055057705    20.450858    22.046375 0.0024210283 
 2420000    2.0101281 -0.036083622     20.57462    22.498411  0.068415949 
 2430000    1.7024887  0.029919915    20.671712    22.361558 0.0045598187 
 2440000    1.9189252 -0.056590984    20.521217    22.335578 -0.018302647 
 2450000     2.274454 -0.051447763    20.488666    22.654811 0.0097784008 
 2460000    2.1640925 -0.043166625    20.585363    22.652187 -0.031539011 
 2470000    1.6932409  -0.15866491    20.855745     22.34799  0.074031576 
 2480000    2.0292151 -0.046002116    20.781497     22.71398   0.13008168 
 2490000    1.9673248 -0.018750437    20.631633    22.531024   0.04637661 
 2500000     2.506831 -0.040033085    20.719729    23.123856  0.032816269 
 2510000    1.5823799  0.074111251    21.369768    22.986699  0.096888276 
 2520000    1.9389201 -0.013502917    21.001038    22.877983  -0.09160055 
 2530000    1.8427792 -0.064853226    20.513259    22.245115   0.21963094 
 2540000    1.5355735 -0.0048338553    20.597508    22.089858 -0.057634231 
 2550000    1.7362192 -0.039431233    20.834455    22.487838    0.1814618 
 2560000    2.2266149 -0.0085430459    20.572545    22.734952 -0.039842782 
 2570000    2.2189201  -0.10795794    20.708061     22.76355  0.078271488 
 2580000    2.2944471 -0.033737092    20.501986    22.705335  -0.16813951 
 2590000    2.0150488  0.011968504    20.520277    22.496918   0.13739176 
 2600000    2.0674823 -0.041883914    20.912656    22.886568  -0.12194291 
 2610000    2.4802004 -0.038129971    20.801231    23.181296  -0.13661632 
 2620000    1.7111232 0.0091116629    20.823383     22.50084 -0.042513834 
 2630000    2.2642191 -0.056514923      20.7513    22.902399 -0.035534099 
 2640000    1.7866958  0.034111107    20.779427    22.555566   0.10238673 
 2650000    2.1581394 -0.012360632    21.084004    23.175829  0.070012943 
 2660000     1.975622  -0.01402939    20.946783    22.858985 -0.018548749 
 2670000     1.943795 -0.018898761    20.881833    22.758134 -0.030205956 
 2680000    1.8981659 -0.0056286894     20.89175    22.736833  -0.17911928 
 2690000    2.1066953 -0.045426771     20.69596    22.704562 -0.010652761 
 2700000    1.8869214            0    20.569647    22.409395 -0.046713518 
 2710000    2.0467935 -0.017749979    20.615281    22.593154 -0.094346704 
 2720000    1.5598526 -0.025374349    21.052452    22.547934  -0.10649633 
 2730000    1.8642039 -0.048017393    21.147037    22.916618  -0.21618702 
 2740000    1.8896068 -0.063514792    20.722462    22.501314   -0.1561855 
 2750000    1.9212635 -0.031414711      20.8671    22.708918 -0.015346765 
 2760000    2.4133821    -0.128636    20.423026    22.647437 0.0042940848 
 2770000    2.4905415 -0.020953882    21.172819    23.580143 -0.040717981 
 2780000    2.2313277 -0.035802259    20.599481    22.739223   0.19223792 
 2790000    2.0906327 -0.038744729    20.707555    22.707178  0.033749852 
 2800000    2.4455773 -0.046889421    20.680787    23.018336  0.032261147 
 2810000    2.0769184  0.066454485    20.575812    22.667262  0.032828262 
 2820000    1.8904232 -0.036646314    20.631021    22.437538   0.18653775 
 2830000    2.2521964 -0.046601526    20.419092    22.568382 -0.0069546944 
 2840000    1.6591864 -0.071284526    20.976504    22.522927   0.13217112 
 2850000    1.8548974 -0.013210954    21.428676     23.22399   0.08523738 
 2860000     1.851586   0.17365845    21.222904    23.201858  0.033520769 
 2870000    1.7693951 -0.024234963    20.863516    22.564441 -0.0047478604 
 2880000    2.5425162 -0.004614956    20.478987    22.953326 -0.015090259 
 2890000    1.9090111 -0.022526593    21.222259    23.061018 -0.011844742 
 2900000    1.9855186  -0.10941881    20.514368     22.34083 -0.0057235959 
 2910000    2.3761066 -0.0069104452    20.654501    22.964295 -0.014630362 
 2920000    1.9433898 -0.024847471    21.117236    22.987194  -0.14279377 
 2930000    2.0306278            0    20.468739    22.448601 0.0042116545 
 2940000     2.997089 -0.039081331    20.565676    23.448756   0.10011216 
 2950000    2.3345891  -0.06355096    20.879945    23.092618  -0.14370298 
 2960000    1.8527108  -0.10897411    20.489443    22.186862   0.10371282 
 2970000    2.1109828            0    20.763561    22.821769 -0.099369235 
 2980000    2.3873415 -0.070796489    21.146115    23.402976   0.14308172 
 2990000    1.9942783 -0.038567988    20.979226    22.885079 -0.096717306 
 3000000    2.2458981 -0.067168483    20.879815    23.002397  0.055140304 
 3010000     1.831308 -0.030184544    21.071513    22.826854  -0.15726036 
 3020000     2.013153  -0.01953153    20.572339    22.515632 0.0056896161 
 3030000    1.8334854            0    20.621967    22.409616 -0.046439024 
 3040000    2.2058431 -0.0045907928     20.51258    22.658686  0.029795957 
 3050000    1.7005911 -0.061544131     21.40164    22.998172 -0.059056837 
 3060000    1.7363546  -0.12817105    20.915009    22.479784  -0.05980395 
 3070000    1.8376442 -0.068566479    20.343862    22.066999  0.025955312 
 3080000     2.420948 -0.070708932    20.732976    23.022692 -0.034979832 
 3090000     1.608842 -0.065495942     20.41976    21.922885   0.02052832 
 3100000    1.9290687 -0.049009038    20.617422    22.449255  0.012764226 
 3110000    1.9667373            0    20.944443    22.862012  -0.06212079 
 3120000    1.9334258 -0.011064992    20.521659    22.395684 0.0020146926 
 3130000    1.9748932  -0.11881539    20.679952    22.486658  0.099731898 
 3140000    1.7697312 -0.029838807    20.847969    22.543619  0.044499766 
 3150000    2.2974712 -0.069113956    20.568527    22.739448   0.01102638 
 3160000     2.160428 -0.093973602    20.950511    22.962954 -0.057124498 
 3170000    2.0386217 -0.060075825     21.04277    22.970351  0.069142093 
 3180000    1.9126085 -0.010125486     20.47614    22.330808  -0.15226461 
 3190000    2.0714877 -0.044194026    20.668149    22.643656  0.046657583 
 3200000    2.0441646 -0.033807736    20.840511    22.799764  0.049100376 
 3210000    1.6627698 -0.013106014    20.621647    22.229741 -0.075132969 
 3220000    1.5667904 -0.034097261    20.386981    21.880504 -0.022185692 
 3230000    1.6225512 0.0097810133    20.698323    22.290092  0.020337922 
 3240000    1.7418723 -0.043497149    20.307624    21.962452 -0.0065039518 
 3250000      2.11359 -0.032067878    20.863411    22.892093  0.028400962 
 3260000     2.179435  -0.18637488    20.489836     22.42841 -0.015980715 
 3270000    1.8669609  -0.02609382     20.97265    22.766843  0.064530942 
 3280000    1.9368328 -0.046298145    20.838163    22.680277  0.037717269 
 3290000    1.8988043  -0.10182801    20.343855    22.093361     0.116123 
 3300000    1.9799198            0    20.431635    22.362056  0.098012435 
 3310000    2.3159537    0.0873208    20.768443    23.113819   0.12766278 
 3320000    2.4212545 -0.0057826361    20.828918    23.183858 -0.011094105 
 3330000    1.9919515  -0.06288246    20.920254    22.799524 -0.019212066 
 3340000     1.991392 -0.023681329    20.476306    22.394232  0.084189305 
 3350000    1.5698272 -0.074350502    20.556681    22.012912  0.014196518 
 3360000    1.6976963 -0.028963526    20.701639     22.32793  -0.11439496 
 3370000     2.172845  -0.04741846    20.768351    22.839456   0.07113422 
 3380000    1.5406645 -0.071856647    20.683372    22.113663 -0.018440145 
 3390000    2.1796782 -0.017443609    20.936735    23.044477 -0.017155821 
 3400000    1.8692539            0    20.740609    22.563132   0.14425321 
 3410000    2.3529666 -0.016453925    20.832811    23.110499 -0.083144167 
 3420000    1.9867818 -0.047777925    20.753987    22.643322  -0.11519467 
 3430000    1.9521597            0     21.07521    22.978566 -0.030212077 
 3440000    2.5687215 0.0029203533    21.137144    23.644568  -0.11211189 
 3450000    1.8625423 -0.011416384    20.966847     22.77141 -0.058745056 
 3460000    2.2533268 -0.097007062    20.744968    22.844954 -0.062788791 
 3470000    1.9406958  -0.04990008    20.466241    22.308519   0.07334177 
 3480000    1.7612424 0.00037879033    20.786589    22.504179  0.042468274 
 3490000    2.1054912            0    20.822499    22.875353  0.054299906 
 3500000    2.0567651 -0.038745085    21.148024    23.114625 -0.099948628 
 3510000    1.7472256            0    20.530731    22.234276 -0.055233708 
 3520000    2.3812604 -0.094806475    20.811544    23.038467    0.1203843 
 3530000    2.4457528 -0.085943113    20.922467    23.221132  0.028787985 
 3540000    1.7380997 -0.090949578    20.355096    21.958793  0.039688254 
 3550000    2.4058363 -0.045553641    21.052589    23.352726  0.071426884 
 3560000    2.0011534  -0.02459689    20.711282     22.63781   0.11633164 
 3570000    1.9088943            0    21.074015    22.935187 -0.071606126 
 3580000    1.9398487  -0.11659494    20.862535    22.637293 -0.086412104 
 3590000    1.6993616            0    21.115528    22.772406  -0.10937022 
 3600000    2.7839177 -0.0054173162    20.813064    23.521966  -0.10040189 
 3610000     2.036113 -0.070286431     21.48395    23.398874  0.033570623 
 3620000    1.6031612 -0.015759264    20.804082    22.351405  0.038504022 
 3630000    2.2273763            0    20.930796    23.102487 -0.018482525 
 3640000    2.5601644 -0.049139911    20.291787    22.738807   0.15404586 
 3650000    2.1960844  -0.02479996    20.955363    23.071746 0.0053278525 
 3660000    1.7713553 -0.00068600048    21.202451    22.928837   0.10526054 
 3670000    1.3690289            0    20.622322    21.957125 -0.069044955 
 3680000    1.9065717  -0.10241057    20.643518    22.400015 -0.018242775 
 3690000    1.6768114 -0.020949284    21.017994    22.631936 0.0073553665 
 3700000    1.9048553 -0.034097563    20.857278    22.680415 0.0031637161 
 3710000    2.1758343 0.00033400931    20.796692    22.918464 -0.029670789 
 3720000    2.5810703  -0.04983884    20.887286    23.353991 -0.0063412256 
 3730000    1.5861543   -0.0481196    20.639056    22.137437  -0.19763617 
 3740000    1.9090567 -0.039551504    20.808543    22.630322 -0.048342074 
 3750000    2.1116998 -0.024867818    20.830544    22.864584 -0.0054001055 
 3760000    2.2385809 -0.016096343    20.879407    23.045927 -0.058247911 
 3770000    2.5131014  0.044516868    20.611707    23.106498   0.12050042 
 3780000    2.0911732 -0.00041097141    21.038558    23.077041 -0.074957005 
 3790000    1.8328494   0.01499525    20.565329    22.367352   0.14944156 
 3800000    2.7063277 -0.052403099    21.017962    23.604228 0.0018644567 
 3810000    1.7332552 -0.042395697    20.887511    22.535039  -0.07545538 
 3820000    2.5449165 -0.070669377    21.406738    23.817362  0.054800068 
 3830000    1.6760635  -0.03542097    20.243743    21.842484 0.0033418993 
 3840000    2.0862646 -0.023891175    20.795966    22.806183  -0.21528971 
 3850000    2.1011007 -0.046968718    20.541776     22.54338 -0.0026905963 
 3860000    2.3161626 -0.045098128    20.562763    22.775923 -0.048521611 
 3870000    2.1618372 -0.062760864    20.543124    22.588154   0.11437401 
 3880000    2.0138665 -0.045870518    20.450583    22.368232  0.021360924 
 3890000    2.0721816  0.036356446    21.345127    23.401861 0.0031756193 
 3900000     2.219287 -0.047507358    20.822889    22.939186 -0.027657767 
 3910000    1.9870575  -0.02777504    20.673924     22.58353 -0.021681502 
 3920000     2.248202  -0.05967242    20.912011    23.044335  0.098036883 
 3930000    2.0533154 -0.041768302    20.513598    22.473812 -0.022249895 
 3940000    2.0458768  0.075422143    20.673258     22.74341  0.071329862 
 3950000    2.1504653 -0.015118006    20.554639    22.636225  0.043556645 
 3960000    2.1884331  0.091153819    20.907552    23.132428 -0.0097238393 
 3970000    2.2967963 -0.028977712    20.825158    23.035556 -0.092203768 
 3980000    1.4882727 -0.077631333    20.934599    22.308034 -0.029654912 
 3990000      1.60424 -0.024143852    21.179394    22.719384 0.0076471932 
 4000000    1.7970425 -0.012036612    20.964096    22.704176 -0.067380805 
 4010000    2.2783322 -0.012482734    20.438516    22.647407  0.062597231 
 4020000     2.477074   -0.0885783    20.768564    23.095133 -0.042683384 
 4030000    2.5206642 -0.021849908    20.617536    23.053333 -0.025495873 
 4040000     2.136739            0    20.483727    22.567047    0.1466538 
 4050000    2.6123908 -0.030917159    20.833339    23.349503  0.017775469 
 4060000    2.0991564 -0.048672058     21.00548    23.003486  -0.13377999 
 4070000    2.0078368 -0.024999473    20.703426    22.636068 -0.040166625 
 4080000    2.1980957 -0.059440527    20.735734    22.819436 0.00025809126 
 4090000    2.1966809 0.0082639271    20.794025    22.944053  0.078135868 
 4100000    1.5410843 -0.048910171    20.673483     22.12713   0.02638547 
 4110000    1.9070808 -0.017343095    21.016617    22.858678   0.14739898 
 4120000    2.1833747            0    20.815267    22.944057   0.11176597 
 4130000    1.6931135 -0.011793233    20.476766    22.115759  0.076137383 
 4140000    1.8527099 -0.024766469     20.62541    22.407036 -0.058335388 
 4150000    1.6082478   0.14679483    20.796503     22.51134  -0.12312081 
 4160000    2.0257295 -0.024982218    20.937024    22.887128   0.25083553 
 4170000    1.5202903 0.0024175395    20.702687    22.187388  0.039143492 
 4180000    1.4692633 -0.049437675    20.779844    22.162938  0.036426519 
 4190000    1.6650279 -0.062843975     21.14925    22.709809 0.0067779604 
 4200000    2.2483042 -0.020811572    20.767547    22.938832  0.061790738 
 4210000    2.3637504 -0.036537121    20.752569    23.020689  0.095848541 
 4220000    1.9730976 -0.020586122    20.910956     22.81414  -0.13727065 
 4230000    1.7572498 -0.098338673    20.885931    22.500911 -0.065380883 
 4240000    2.0568133 -0.036179474    21.045423    23.014636  0.032737243 
 4250000    2.0368132   0.17913705    20.734236    22.899266   0.11252792 
 4260000    1.9943438 -0.065665714    20.975128    22.853948 -0.068596509 
 4270000    1.5271292 -0.024641549    20.849888    22.314197  -0.11850834 
 4280000    1.6190641 -0.024266389     21.01018    22.564501  -0.17639628 
 4290000      2.45035 -0.004279632    20.968807    23.353619 -0.068301082 
 4300000     1.910063 -0.058837914    20.594294    22.397768   0.04146831 
 4310000    2.1823464 0.0020498603     21.11626    23.246097 -0.075967422 
 4320000     1.367172 -0.090020021    20.940433    22.183405  0.065170709 
 4330000    1.8989122 -0.0094961437     20.86098    22.702923  0.096193965 
 4340000    1.9750729 -0.024964258    20.716975    22.617707 -0.012319342 
 4350000    1.9512021 -0.073313903    20.760953    22.590061 -0.050224977 
 4360000    2.0368888            0    21.128048    23.114015  0.041976579 
 4370000     2.023685 -0.011645985    20.856279    22.817726 -0.046652501 
 4380000    1.9595482  -0.11317529    20.407451    22.204835  0.062673535 
 4390000    1.8081642 0.0034267419    20.721262    22.487649 -0.087374159 
 4400000    2.7202449 -0.020476318     20.37136    23.003122   0.05471928 
 4410000    2.0363073  -0.10698742       20.635    22.513412 -0.052351387 
 4420000    1.8879486 -0.021324343    20.639947    22.459373 -0.013313278 
 4430000    1.7623272 -0.016430119    21.781429    23.483268 -0.024949479 
 4440000    2.6528412 -0.049991826    20.217019    22.753547  0.085252914 
 4450000    2.2897377  0.020730181    20.550543    22.803767 -0.004768175 
 4460000    1.9769459   -0.0370081     20.79051    22.681024  0.035450394 
 4470000    2.3095925 -0.048496379    20.696701    22.900057  -0.04034258 
 4480000    1.7237674 0.0039694698    21.118006    22.802649  -0.17153089 
 4490000    1.9632325 -0.044994312    20.623197    22.492354 -0.039836993 
 4500000    2.3995735 -0.038087461    20.728479    23.029975 -0.0099605732 
 4510000    1.5432526 -0.072298049    20.720764    22.153137  0.090974747 
 4520000    2.1520804  -0.02453291    21.076317    23.150063  0.011788856 
 4530000    2.1202039 -0.025420463    21.249696    23.291474 -0.054238881 
 4540000    1.7454142   -0.0221011    20.817816    22.497494   0.10454372 
 4550000    2.2420293  0.016148111    20.626612    22.828739 -0.048243232 
 4560000    1.8892543  0.026742157    20.770523    22.639288 -0.065589417 
 4570000    2.3075801            0    21.007153    23.257043 0.0049383712 
 4580000    1.5770869 -0.024063056     20.73505    22.248647 -0.019490137 
 4590000    2.2027019 -0.074468602    20.550343    22.623509  0.041722892 
 4600000    1.9350503            0    20.894917    22.781591 -0.052297221 
 4610000    2.0006916 -0.022096766    20.553671    22.482249   -0.1955717 
 4620000    1.6386857 -0.065331106    20.775116    22.307504 0.0076459943 
 4630000    1.9914041 -0.049688688    20.939687    22.831617 0.0035859741 
 4640000     1.700904  0.075015649    20.429678    22.163075 0.0017974244 
 4650000    1.5524367 -0.024521657    20.750801    22.239905  0.072722431 
 4660000    1.5307251 -0.049974191    20.808033    22.250516 -0.086567755 
 4670000    2.4414774 -0.038899968    20.516029    22.857569  0.055617107 
 4680000    1.8998962  -0.02417565    20.381503    22.209726  0.029717631 
 4690000    1.9642474 -0.051856223    20.673668    22.536953 -0.076972465 
 4700000     2.282903 -0.039563196    20.768024    22.954291 -0.0087620494 
 4710000    2.0781564  -0.12051531    20.486905    22.392592  0.076521803 
 4720000    2.0398401  -0.11115287    20.561731    22.439423  0.020329108 
 4730000    1.9433595 -0.039274052    20.989032    22.844534 -0.013849912 
 4740000     1.849694  0.010780481    20.737715    22.551947  0.099277917 
 4750000    2.1891792 -0.080208449    20.692057    22.746298 -0.0068138631 
 4760000    2.0879362  -0.05697338    20.706821    22.685586 -0.013093544 
 4770000    1.4139612 -0.057332246    20.884537    22.205816  -0.12268658 
 4780000    1.9019642 -0.017245472    20.656417    22.493586  -0.01547325 
 4790000    2.3981764 -0.032681563    20.822661    23.128202 -0.047884284 
 4800000    1.8152395 0.00099999673    20.484983    22.255842  -0.14374405 
 4810000    1.8658437   0.25339168    20.673768    22.746357  0.049822652 
 4820000    1.9292017 -0.092454925     20.42434    22.212857  0.080059293 
 4830000    2.0448899   0.10361954    20.470993     22.56838    0.2649603 
 4840000    2.0738529  -0.03737312    20.661192    22.645825 -0.066186672 
 4850000    1.8227783 -0.063677895     20.97002    22.683551   -0.1509766 
 4860000    2.2854289 -0.048193012    20.627996    22.808096    0.1750405 
 4870000    2.2609263 -0.033762816     21.20427     23.37491  -0.11967896 
 4880000     1.645315 -0.069480808    20.718588     22.25329  0.024777275 
 4890000    1.4629782 -0.024074278    20.788946    22.191275  -0.15909366 
 4900000    2.3045728 -0.095858296    20.563618    22.714718 -0.019028366 
 4910000    2.2907546  -0.02498321     20.88146    23.089963 0.0055554267 
 4920000    1.9760249  0.023960759     21.05819    23.008775   0.10635309 
 4930000    2.2476871   0.13634869    20.700578    23.028421   0.11944096 
 4940000      1.82912 -0.076093494    20.633046    22.340345 -0.033212004 
 4950000    2.1406092 -0.073136506    20.538506    22.552463 -0.086285534 
 4960000    1.9774965  0.058427562    21.066586    23.053072 -0.052874963 
 4970000    2.6860695 -0.017982328    21.123817    23.724753  -0.13454965 
 4980000    1.8533174 -0.018009362    20.803536    22.592511 -0.087418571 
 4990000    2.2642576 -0.059624913    20.798538    22.946565   0.04242449 
 5000000    2.0250571 -0.024344218    20.492697    22.442783 -0.013619274 
Loop time of 24.1994 on 1 procs for 5000000 steps with 40 atoms

Performance: 89258233.919 tau/day, 206616.282 timesteps/s
100.0% CPU use with 1 MPI tasks x no OpenMP threads

MPI task timing breakdown:
Section |  min time  |  avg time  |  max time  |%varavg| %total
---------------------------------------------------------------
Pair    | 1.4747     | 1.4747     | 1.4747     |   0.0 |  6.09
Bond    | 4.956      | 4.956      | 4.956      |   0.0 | 20.48
Neigh   | 3.2707     | 3.2707     | 3.2707     |   0.0 | 13.52
Comm    | 1.0414     | 1.0414     | 1.0414     |   0.0 |  4.30
Output  | 0.0064244  | 0.0064244  | 0.0064244  |   0.0 |  0.03
Modify  | 12.33      | 12.33      | 12.33      |   0.0 | 50.95
Other   |            | 1.12       |            |       |  4.63

Nlocal:    40 ave 40 max 40 min
Histogram: 1 0 0 0 0 0 0 0 0 0
Nghost:    8 ave 8 max 8 min
Histogram: 1 0 0 0 0 0 0 0 0 0
Neighs:    10 ave 10 max 10 min
Histogram: 1 0 0 0 0 0 0 0 0 0

Total # of neighbors = 10
Ave neighs/atom = 0.25
Ave special neighs/atom = 1.95
Neighbor list builds = 495833
Dangerous builds = 464343
reset_timestep  0

###############################
## Mean Squared Displacement ##
###############################

# calculate and output MSD at regular time intervals
compute         1 all msd
fix             4 all ave/time 10 10 100 c_1[*] file msd.txt

# run the simulation for X steps (measurement)
run             10000000
Per MPI rank memory allocation (min/avg/max) = 6.066 | 6.066 | 6.066 Mbytes
Step Temp E_pair E_mol TotEng Press 
       0    2.0250571 -0.024344218    20.492697    22.442783 -0.013619274 
   10000    2.0136899            0    20.514961    22.478308 -0.082323195 
   20000    2.2749037  0.041478041    20.682744    22.942253  0.097801507 
   30000    1.9061062 -0.023986873    20.603924     22.43839 -0.088247217 
   40000    2.0272713 0.00013608036    20.669453    22.646178  0.079120393 
   50000     2.179616 -0.0081892833    20.773987    22.890923 0.00074747755 
   60000    1.6894283 0.0087217991     20.60942    22.265334  0.043982328 
   70000    2.3143605            0     21.38698    23.643481  -0.16099056 
   80000    2.3897704 -0.085491694    20.840427    23.084962  0.032346006 
   90000    2.8222289  -0.10386001    20.548463    23.196276  0.022282565 
  100000    2.2574641 -0.036864379     21.11957    23.283733  0.040775861 
  110000     2.065094 0.0051713052    20.751777    22.770415  -0.12037719 
  120000    1.4980436 -0.0097654541    20.671453     22.12228  0.043575929 
  130000    2.3384398 -0.0073228743    20.587787    22.860443   0.21270889 
  140000    2.3594097 -0.036970559    20.937527    23.200981  0.087716701 
  150000     2.486721            0    20.436783    22.861336  -0.13315015 
  160000    1.9419293  -0.10555595    20.838935    22.626761 -0.049057901 
  170000    2.1902464 -0.032913778    21.067786    23.170362  0.072035981 
  180000    1.5607955 -0.016835847    20.350178    21.855118 -0.099431279 
  190000        1.713 -0.095782091    20.949718    22.524111  0.041853278 
  200000    1.7062016            0     20.47175    22.135297  -0.15168301 
  210000    1.7267818 -0.043560714    20.510053    22.150104 -0.094280414 
  220000    2.3044649  -0.04188011    20.837479    23.042453 -0.042110213 
  230000    2.0285936 -0.024871799    20.879234    22.832241  -0.12131691 
  240000    1.5254107 -0.019035722    20.928093    22.396333  -0.06327366 
  250000    1.5581374            0    20.626079    22.145263  0.033459227 
  260000    1.8149103 -0.024961282    20.912725    22.657301  -0.08225557 
  270000     2.013875  0.054177666    20.586786    22.604492  0.020641562 
  280000    1.6683909 -0.066296028    20.729137    22.289523 0.0069564555 
  290000    2.2294113 -0.022853147    20.666658    22.817481  0.020789603 
  300000    2.1533295  -0.02657852    20.745178    22.818096  -0.12687979 
  310000    1.9771877            0     20.54781    22.475568 -0.083214722 
  320000    2.1120218 -0.043620863    20.630897    22.646497   0.13469571 
  330000    2.1863624 -0.096026017    21.004298    23.039976 -0.023325856 
  340000    1.8885446 -0.058483871     21.02209    22.804937 -0.095086058 
  350000    2.0987967  -0.04058275    20.417542    22.423286 -0.071661456 
  360000    2.0133463 -0.057773422    20.367608    22.272847 -0.017350002 
  370000    1.7584178  -0.01588434    20.765722    22.464295   0.10325454 
  380000    2.0305598 -0.018554746    20.867336    22.828577   0.11242199 
  390000    2.2374733 -0.054758436    20.440059    22.566837  0.049928548 
  400000    2.3191504 -0.065352409    20.919949    23.115768 -0.027587406 
  410000    2.5456899 -0.0034209523    20.854862    23.333489  -0.10016967 
  420000    1.9011279  -0.11872082    21.092102    22.826981  0.083001713 
  430000    1.7726784 -0.066665879    20.895891    22.557587 -0.040466479 
  440000    1.4124181   -0.1014152    20.591546    21.867239 -0.072177981 
  450000    1.4839548 -0.045005862    20.512354    21.914204  0.009103882 
  460000    1.4928959 -0.022240909     20.81108    22.244413  -0.15744028 
  470000     1.947533 -0.022209736    21.313547    23.190182  -0.15688842 
  480000    2.1953089 -0.014511611    20.829971    22.955886 -0.044246196 
  490000    2.3808411 -0.040447414    20.481594    22.762466  -0.10416428 
  500000    1.7730275 -0.049899623    20.492496    22.171298  0.021228813 
  510000    1.9391364 -0.053667324    21.129342    22.966332 0.0043658675 
  520000    2.1225117            0    20.635093    22.704542  -0.11640403 
  530000    2.9636491 -0.045602328    20.883625     23.72758 -0.049245777 
  540000    2.5315915 -0.019260443    21.070438    23.519479 -0.089798854 
  550000    2.4966395 -0.039892532    21.184248    23.578579 -0.087069712 
  560000    1.5719734 -0.048742723    20.501884    21.985816 0.0067007948 
  570000    2.6171204 -0.036233344    21.102952    23.618411   0.13777914 
  580000    2.4231577 -0.0054422556    20.510063    22.867199   0.13140351 
  590000    1.8783905            0    20.897791    22.729222  0.031242338 
  600000    2.3860813 -0.013845235    20.632871    22.945455  0.077262557 
  610000    1.7460696 -0.044849857    20.744821    22.402389 -0.050369238 
  620000    2.1155989 -0.043823843    20.737295     22.75618 -0.074543052 
  630000     2.267551 -0.071591935    20.879418    23.018689 -0.029668646 
  640000    2.2332328 -0.0067183275    20.740743    22.911427  0.059349013 
  650000    2.4291914 -0.0080251496    20.296195    22.656632 -0.023510401 
  660000     2.205378  -0.01536305    20.966128    23.101009 -0.042893523 
  670000    2.5090967 -0.043996518    20.870557    23.272929  0.059535732 
  680000    1.7964355 0.0002928195    20.706029    22.457847  0.088358009 
  690000    2.3404236  0.087495981    20.566283    22.935692  0.053484093 
  700000    1.8640445 -0.047778271    20.852626    22.622291  -0.10244117 
  710000    2.4014631 -0.071674139    20.843932    23.113684  0.096215676 
  720000    1.7885813 -0.081454579    20.807723    22.470135 -0.047996863 
  730000    2.6629584 -0.047787704    20.650063     23.19866  0.092100865 
  740000    1.8590496 -0.0046143811    21.121034    22.928993  -0.16226057 
  750000    1.7617868  0.093973963    20.400917    22.212633 -0.0091264171 
  760000    2.0539326 -0.024416425    20.393609    22.371777 -0.050381515 
  770000    1.7542783 -0.051797826      20.7808    22.439424 -0.047161545 
  780000    2.7704459 -0.080906942    21.127561    23.747839 0.0030238137 
  790000     1.984432 -0.086174544    20.575053      22.4237  0.048700754 
  800000    1.7677412 -0.023786142    20.669159    22.368921   0.02852932 
  810000    2.2616054 -0.028193979    20.406281    22.583152 -0.0027846298 
  820000    2.1702978 -0.011424287    20.553893    22.658509  0.069521099 
  830000    1.8369076 -0.010255386    20.446164    22.226894   0.11733133 
  840000    1.8456413 -0.032523867    21.195258    22.962234 -0.016624349 
  850000    1.8515831            0    20.615621    22.420915 -0.064252956 
  860000    2.4954957 -0.082650928    20.674017    23.024474   0.10677308 
  870000    1.9668175 -0.088700592    20.650402    22.479348  0.060944257 
  880000    2.4756803 -0.052383695    20.568742    22.930147  0.013983266 
  890000    1.7614436  -0.06032157     20.91547    22.572556   0.25871109 
  900000    2.1027038 -0.018667017     20.66039    22.691859 -0.019956531 
  910000    1.7686358 -0.038492851    21.000636    22.686563 -0.033632079 
  920000    2.0493692 -0.024971909    20.689745    22.662908 -0.038313099 
  930000    1.5841315  -0.10619978     20.88061    22.318939    0.0315954 
  940000    1.6296411 -0.0074392926    20.948299     22.52976 0.0096724123 
  950000    2.0532164 -0.073209775    20.907456    22.836132  -0.10151924 
  960000    2.1085141 -0.024918341    20.737696    22.768579    0.1012255 
  970000    1.6124247 -0.029859047    20.395234    21.937489 0.00013553425 
  980000    1.9931681 -0.027406452    20.763705    22.679638  0.054296349 
  990000    2.0556037 -0.028363968    20.672363    22.648212 -0.057504346 
 1000000    2.2633201 -0.015994691    21.006994    23.197737  -0.04786243 
 1010000    2.4141421 -0.068708922    20.852973    23.138053 -0.057825104 
 1020000    1.8122992 -0.028229712    20.524525    22.263287  0.099142571 
 1030000    2.2375658 -0.0081014558    20.931028    23.104553  -0.10470741 
 1040000    2.7410665            0    20.713479    23.386019  0.023155988 
 1050000    2.3269577 -0.018796953    20.893778    23.143765  -0.12348967 
 1060000    2.0187747 -0.082735792    20.863107    22.748676  0.010462749 
 1070000    1.5185312 -0.0093816091    20.916513    22.387699   0.11880808 
 1080000    2.3897266 -0.054965892    20.871616    23.146633 -0.059653455 
 1090000    1.9546858            0    20.971095    22.876914   -0.1217469 
 1100000    2.1776236  -0.02226386    20.886191     22.98711  0.080799388 
 1110000     1.757726 -0.0093486757    20.553487    22.257921 -0.061910109 
 1120000    1.8263747 -0.024611118    20.582648    22.338752   0.12957799 
 1130000    1.8913394 -0.033902365    20.703713    22.513866 -0.023237927 
 1140000    2.2387212 -0.045162238    20.362105    22.499696  0.092891053 
 1150000    1.8347425 -0.056860674    20.739153    22.471167  0.025085165 
 1160000    1.7263621            0    20.845323    22.528526  0.024987962 
 1170000    2.2943612 -0.031427907    20.856815    23.062389  0.004293435 
 1180000     1.811167 -0.028214777    21.038843    22.776516 -0.070995032 
 1190000    2.0616864 0.0010080716    20.742236    22.753388  0.027927128 
 1200000    2.5958315            0    20.363282    22.894218   0.09082005 
 1210000     2.555175  -0.01714293    20.807033    23.281186  0.086951178 
 1220000    1.4863248 -0.052478386    20.912397    22.309086  0.045840558 
 1230000    1.7850402 -0.019031912     20.77039    22.491773   0.11046483 
 1240000    1.8835272  0.072411396    20.716874    22.625724 -0.083987263 
 1250000    2.0660769 -0.013750376    20.363068    22.363743 -0.039860104 
 1260000    1.5687225            0    21.329926    22.859431  -0.03676431 
 1270000    1.5583742  0.015660147    20.659125      22.1942 -0.0056197224 
 1280000     2.385576 -0.040637452    20.675017    22.960316   0.14084642 
 1290000    1.8980254 -0.073267907     20.96128    22.738586  -0.05367925 
 1300000     1.706187  0.016360474    21.104244    22.784137 -0.012148051 
 1310000    2.2776396 -0.042113331    20.564991    22.743576 -0.055381168 
 1320000    1.6500331 -0.019702728    21.123378    22.712458 -0.035098075 
 1330000    2.0811787 -0.082726522    20.935153    22.881576  0.079949232 
 1340000    1.6002808 -0.010322322    20.802871    22.352822 -0.057795692 
 1350000    2.2295281 -0.045912544    20.783886    22.911764   -0.1737889 
 1360000    2.4198014 -0.086525452    20.665106    22.937887  0.062578194 
 1370000    1.7785238 -0.032889738    21.003807    22.704978 0.0093717833 
 1380000     2.127443 -0.065100422    20.678825    22.687982  -0.10652652 
 1390000    1.5885276 -0.024810976    21.103524    22.627527   0.15702277 
 1400000    1.4787325 -0.011087273    20.965222    22.395899  0.038313857 
 1410000     1.831352 -0.035545353    20.623536    22.373559   0.02920893 
 1420000    2.8962863  -0.01813999    20.830909    23.636648   0.13264618 
 1430000    1.9067206  0.076083432    20.817277    22.752413 -0.080797039 
 1440000    2.4245658 -0.021956579    20.936026    23.278021   0.14977093 
 1450000    1.8062184 -0.067816915    20.777142    22.470388  0.020828719 
 1460000    2.1027577            0    20.720637    22.770826  0.079734121 
 1470000    3.0720048  -0.05481524    20.760725    23.701115   0.08199109 
 1480000     1.886682 -0.010468553    20.628875    22.457922 -0.013182451 
 1490000    2.2676745 0.0057686343    20.478725    22.695476  -0.02009324 
 1500000    2.1202595            0    20.447993    22.515246 -0.024760169 
 1510000    2.1550507 -0.063780497    20.499551    22.536945  -0.06897839 
 1520000     1.636658 -0.039182795    21.087404    22.643963  0.031784153 
 1530000    1.5843013 -0.087526085    20.865169    22.322337 -0.082561535 
 1540000    2.0047939 -0.032541155    20.495089    22.417222  0.060388621 
 1550000    2.4991013 -0.089727697     20.51811    22.865006  0.074848351 
 1560000     2.107709            0    20.750933    22.805949   0.10338894 
 1570000      2.26746 -0.010802309    20.872091    23.072062  0.016421542 
 1580000    1.6534258 -0.0085672709    20.550915    22.154438  0.093523035 
 1590000    1.6129349 -0.032505474    20.617611    22.157717    0.1139774 
 1600000    2.3886745 -0.070292558    20.602466    22.861131 -0.034415275 
 1610000    2.4232322 -0.0057945808     20.58096    22.937817  0.058920486 
 1620000      2.52602 -0.081358858    20.419285    22.800795 -0.0019713693 
 1630000    1.9575813 -0.018889255     20.63054    22.520292 -0.042460908 
 1640000    2.3851295 -0.017473488    20.619128    22.927156 -0.077127663 
 1650000    2.0221052 -0.022490613    21.140831    23.089893  -0.12687258 
 1660000    1.9621985  0.032935409    20.989649    22.935728   0.14526498 
 1670000    2.0624869 -0.042745822    21.275035    23.243213  0.031759029 
 1680000    1.5670245  -0.05746026    20.421033    21.891422 0.0043959525 
 1690000    1.9639898 -0.0050616609    20.602827    22.512655 -0.059755686 
 1700000    2.0425488 -0.088948456    21.055647    22.958184  -0.13496905 
 1710000    1.8033623 -0.031097659      20.5645    22.291681 -0.057023659 
 1720000    1.8471138 -0.057616928    20.434185    22.177504  -0.06433589 
 1730000    1.6142526   0.13473603    20.832103    22.540735 -0.019184913 
 1740000    2.6521215  -0.06942547    20.690943    23.207336  -0.01471723 
 1750000    1.9802501  -0.04616494    20.931463    22.816041  0.030962792 
 1760000    1.7235003 -0.00062979831    21.012447     22.69223  0.087270898 
 1770000     1.836764 -0.056965237    20.442832    22.176711  0.042141774 
 1780000    1.9470094 -0.040377071    20.642699    22.500656  0.005317431 
 1790000    1.7410478 -0.021514793    20.888375    22.564382 -0.083832116 
 1800000    1.5200208 -0.047628386    20.898761    22.333153  0.056229225 
 1810000    2.0118222  0.021149942     21.17837    23.161047 -0.045046327 
 1820000    2.5579464 -0.0022193802    20.732363    23.224142  0.042347335 
 1830000    1.9136502 -0.045196397    20.499444    22.320056 -0.099920973 
 1840000    1.7058009 -0.063668685    20.393957    21.993445 -0.092632122 
 1850000    1.5691114 -0.036348935    20.927068    22.420602  0.096048079 
 1860000    2.5970243 -0.0065285083    20.859246    23.384816 -0.014685723 
 1870000    1.5042065            0    20.623434    22.090035 -0.00078004538 
 1880000    2.3120629 -0.033063242    20.669138    22.890336 -0.067301655 
 1890000    2.0340856 -0.023168004    20.489227    22.449292 -0.087915322 
 1900000    1.8309827 -0.050965826    20.721412    22.455654 -0.073048515 
 1910000    1.9454273 -0.061319643    20.422797    22.258269  0.054128156 
 1920000    2.1563781            0    20.447703    22.550172 0.0089982561 
 1930000    2.7149091            0      21.1354    23.782436  -0.14840853 
 1940000    1.7839189   0.03439823    20.586396    22.360116 0.0025098369 
 1950000    2.6551964 -0.056325709    20.751839     23.28433 -0.004273364 
 1960000    2.2875846 -0.022376889    21.131634    23.339652  -0.15185023 
 1970000    2.1022575 -0.022306324    20.975221    23.002616 -0.097174501 
 1980000    1.7012081  -0.01014496    20.568213    22.216746 -0.090399857 
 1990000    2.3514449 -0.067317245    20.999871    23.225213   0.06415084 
 2000000    1.9335507 -0.014260304    20.506189    22.377141 -0.048911618 
 2010000    1.9360428 -0.085971868    21.072663    22.874332  0.035507127 
 2020000    2.5046741 -0.024891276    20.795913    23.213079 -0.051185576 
 2030000    1.8423239 -0.047932367    20.703988    22.452321  0.033824667 
 2040000    1.9017314            0    20.660879    22.515067  0.025297166 
 2050000    1.6336173 -0.024653091     21.12057    22.688694   -0.1151771 
 2060000    1.8648802 -0.016252471    20.750574     22.55258 -0.039719563 
 2070000    2.2198341            0    20.738956    22.903294 -0.083342975 
 2080000    2.0833533 -0.089871333    20.505049    22.446447  0.015038725 
 2090000    1.9716637 -0.096447056    20.649757    22.475682 -0.014297064 
 2100000    2.1939521            0    20.741394    22.880498 -0.030679666 
 2110000    2.3079191 -0.018290957    20.886434    23.118364 -0.049189356 
 2120000    1.6677276 -0.013271518     20.56775    22.180513  0.031324762 
 2130000    2.1568138 -0.023755195    20.898638    22.977777  -0.10086799 
 2140000     2.152201            0    20.461186    22.559582 -0.026856442 
 2150000    2.0200794 -0.024999968    20.649095    22.593672  0.044518942 
 2160000    2.1064247  0.025201831    20.594265    22.673231   0.17577422 
 2170000    2.6115145 0.0025748179    21.356141    23.904942    0.0841267 
 2180000    1.9469169  -0.00669786    21.220124     23.11167  0.063624535 
 2190000    1.9090871  0.079840403    20.901274    22.842474 -0.020787215 
 2200000    1.9813195 0.0085588621    20.742984    22.683329  0.030375921 
 2210000    2.1879602  0.070951718    20.625647     22.82986 -0.046186334 
 2220000    2.1911475 -0.049540106    20.901988    22.988817  0.029941495 
 2230000    2.1144232 0.0081870499    20.911267    22.981017   0.17678891 
 2240000    2.2682788 -0.073535691    20.612379    22.750415   0.07836392 
 2250000    1.9011264 -0.091693038    21.095679    22.857584  -0.13867539 
 2260000    2.1086927  -0.10171558    21.233712    23.187972    0.1229434 
 2270000    2.2646892 -0.066175922    21.116911    23.258807   -0.1282681 
 2280000    2.7455552            0    20.909608    23.586524  0.065644101 
 2290000    1.9586214 -0.017427044    20.405061     22.29729 -0.059361084 
 2300000     1.917499  -0.01961287    20.722374    22.572322   0.12835537 
 2310000    1.7127077 -0.046246468    21.337538    22.961182 -0.019527735 
 2320000    2.5466722            0    20.814321    23.297327 -0.063429765 
 2330000    2.7941679 -0.059536091     20.51238    23.177158   0.12109359 
 2340000    1.8278459 -0.040363667    20.844297    22.586083 -0.058962411 
 2350000    2.6036891 -0.045415031    20.669834    23.163016  0.063730967 
 2360000    1.9366302 -0.081534485    20.298592    22.105272 -0.035657781 
 2370000    2.1163662 -0.048329335    20.793252     22.80838   0.20227355 
 2380000    2.2730003 -0.033881808    20.807625    22.989919 0.00082762091 
 2390000    2.1969516 -0.062102098     20.69055    22.770476    0.1152413 
 2400000    2.2409618 -0.037713983    20.766664    22.913888  -0.11125506 
 2410000    2.9520451  0.021997528    20.912068     23.81231   0.16544979 
 2420000    2.2967527 -0.041808151    20.994286    23.191812    0.0132233 
 2430000    2.4913498 -0.028063338    20.647141    23.048144 -0.093585562 
 2440000     2.200035  -0.01207862    21.203499    23.336455 -0.037370234 
 2450000    2.5588397 -0.085565301    20.688303    23.097606  0.021481906 
 2460000    2.4243749 -0.045945114     20.19962    22.517441  0.084131865 
 2470000    2.1400603  0.045464662    20.665804    22.797828   0.08078862 
 2480000    2.1129298 -0.024999635    20.637017    22.672124  -0.14153099 
 2490000    2.1703938 -0.073642328    20.936154    22.978646  0.021226138 
 2500000    1.8901885 -0.046800321    20.613227    22.409361 -0.090180787 
 2510000    1.9883385 -0.051083806    20.712028    22.599574   0.10756014 
 2520000    2.3668723 -0.052469238    20.515422    22.770653  0.044225615 
 2530000    2.0098104 -0.048316205    20.300752    22.212001  0.051765153 
 2540000    2.2511377            0    20.820962    23.015821  0.044102993 
 2550000    1.7897082 -0.024557941    20.836183     22.55659 -0.086040676 
 2560000    2.0443879 -0.024434099    20.913958    22.882802 -0.073864939 
 2570000    2.7485546  -0.07201638    20.641439    23.249263  -0.10230597 
 2580000    2.1422904   0.11241928    20.680022    22.881174 -0.012578098 
 2590000    2.5222256 -0.042066471    21.021043    23.438147  -0.10286392 
 2600000    1.5220818  -0.03542277    20.730075    22.178682  0.071201146 
 2610000    2.2177397 -0.022901661    21.073094    23.212489  0.011060353 
 2620000    2.0233185 -0.056614893    21.266862    23.182983  -0.26781263 
 2630000    2.3635336 -0.056472686    20.654769    22.902742 -0.012149243 
 2640000    1.8555867 -0.0099948532    20.857513    22.656716 -0.049009197 
 2650000    1.8154119 -0.045085948    21.022179    22.747119 -0.035479988 
 2660000    2.1155823  -0.11510091    20.866651    22.814243   0.10170743 
 2670000     1.594874 -0.067609688    20.647781    22.135174   0.15236835 
 2680000    2.0323007 -0.040160384    21.231391    23.172724   0.16829481 
 2690000    1.3528018 -0.034784541    20.362608    21.646805 -0.031485401 
 2700000    1.8436873            0    20.778422    22.576017 -0.086575646 
 2710000    2.2688485 -0.048323403    20.598836     22.76264 -0.073963825 
 2720000    1.9075765  -0.06605528    21.016558     22.81039  0.074800054 
 2730000    2.2513802 -0.046344056    20.956925    23.105676   0.28614812 
 2740000    2.1893577 -0.024832339    20.726131    22.835923  -0.05355873 
 2750000    1.9422174  0.042212143    20.714573    22.650447  0.027431458 
 2760000    2.2583728            0    20.900476     23.10239 -0.044023461 
 2770000    2.2584471 -0.020640102    21.025975    23.207321 -0.022239716 
 2780000     2.631699  0.070113294    20.933987    23.570007 -0.015104466 
 2790000    2.5922583  -0.10127622    21.343137    23.769312  0.043502069 
 2800000    1.7677165            0    20.565033    22.288556 -0.017719649 
 2810000    1.8382176 -0.046191719    20.740351    22.486422   0.01590477 
 2820000    1.9241887            0    20.697086     22.57317  -0.13797044 
 2830000     2.170395 -0.033826616    20.623359    22.705668   0.09779888 
 2840000    2.5020591 0.0031851739    20.554553    22.997246 -0.035831832 
 2850000    2.2414133 -0.0055043081    20.953612    23.133485   0.13767728 
 2860000    2.8000724  0.082308704    20.946667    23.759046 -0.041950475 
 2870000    1.7608529 -0.021626861    20.702902    22.398106  0.008842006 
 2880000    2.0807133  -0.06503757    20.734025    22.697683  -0.06920365 
 2890000    3.0238652  -0.04017328     20.66541    23.573505  -0.06630172 
 2900000    2.0182543 -0.061932698    20.777516    22.683382  0.060016497 
 2910000    2.0839685 -0.046342021    21.073107    23.058634 -0.042850228 
 2920000     2.187407  0.022921052    20.555908    22.711551  0.075285444 
 2930000    2.0479171  -0.12755289    20.704133    22.573299   -0.0489706 
 2940000    2.4001828  0.011985231    21.096538    23.448702  0.052019019 
 2950000    2.3185093 -0.023978248    20.729792     22.96636 -0.072556582 
 2960000    1.9469952 -0.024878513    20.482973    22.356414 0.0073087977 
 2970000    1.7761433  0.029769101    20.915944    22.677453 -0.034720054 
 2980000    1.5651828 -0.023984537    20.919097    22.421166  -0.11787605 
 2990000    2.0315655 -0.061003604    20.922213    22.841986 -0.011961193 
 3000000     2.431636 -0.024388542    20.968564     23.31502 -0.050878586 
 3010000     2.912872 -0.025376472    20.798568    23.613241   0.07170155 
 3020000    1.7362416 -0.023589917    20.853381    22.522627 -0.056748244 
 3030000    1.8808923 -0.040688935    20.969699     22.76288  0.047850634 
 3040000    2.4280111 -0.019699242    21.077092    23.424704  -0.13143749 
 3050000    1.9148969 -0.046512423    20.839243    22.659755  0.015650543 
 3060000    1.6568874 -0.034435589    20.622845    22.203874  0.023363018 
 3070000    2.7440965 -0.025855978    20.533035    23.182673 -0.027963724 
 3080000    2.2137111            0    21.022413    23.180782   -0.1389085 
 3090000    1.5173739 -0.0094423841    20.633836    22.103833 -0.044389274 
 3100000    1.8006048  0.028994005    21.246018    23.030602  -0.02320008 
 3110000    2.3368307 -0.055351372     20.81174    23.034798   0.25472051 
 3120000    1.5989102 -0.030542241    20.734987    22.263382  0.052198508 
 3130000    2.3881565 -0.023535093    20.613757    22.918675  0.007063351 
 3140000     2.177171 0.00021093079    20.315072    22.438025 -0.024849654 
 3150000    2.5095568 -0.031851011    20.542652    22.957619   0.01963773 
 3160000    2.0652091 -0.0034805739    20.866777    22.876875 -0.096749083 
 3170000    2.2408396            0    20.466368    22.651187 -0.061900526 
 3180000    1.9561992 -0.001950587    20.694936     22.60028  0.045912058 
 3190000    1.7442288 -0.095092265    20.777445    22.382976 -0.074709489 
 3200000    1.7208214 -0.024350926    20.712054    22.365504  -0.12904796 
 3210000    1.4863142 -0.023941847    20.659374    22.084589  0.047551348 
 3220000     2.258797  -0.02150952    20.875896    23.056714  -0.24246013 
 3230000    1.6725321 -0.019712013    20.562258    22.173265 -0.023061472 
 3240000    1.9009892 -0.033868574    20.449976    22.269572   0.12249385 
 3250000    1.6594393  0.013509958    20.351191    21.982654  0.027812748 
 3260000    2.8670496  -0.11384783    20.700958    23.382484 -0.071955734 
 3270000    2.1958456 -0.044082742    20.844419    22.941286  -0.10928101 
 3280000    2.5727859            0    20.628554    23.137021  0.043440883 
 3290000    2.1384799 -0.067094959    20.635697     22.65362  0.083477128 
 3300000    2.0798158 -0.071492962    20.729307    22.685634  0.080964514 
 3310000    2.1030139 -0.053737591    20.637209     22.63391  -0.10271445 
 3320000     2.269139            0    20.567816    22.780227 -0.0063686169 
 3330000     1.470249 -0.0092124602    21.081702    22.505982  -0.14086858 
 3340000    1.7544037 -0.069941922    21.096035    22.736637 -0.099383098 
 3350000    1.7638414 -0.089045934    20.618523    22.249222 -0.042777751 
 3360000    2.0252962 -0.055424763    20.923492    22.842731   0.09764379 
 3370000    2.4651835 -0.024432799    20.810201    23.189322  0.087061278 
 3380000     3.135864   0.05904464    20.383958     23.50047  0.049666771 
 3390000    1.6245562 -0.038730651    21.077194    22.622405 -0.022828773 
 3400000    1.5274787 -0.097482814    20.952498    22.344307  0.038801754 
 3410000    2.1335432  0.049972889    20.793766    22.923943 -0.036675716 
 3420000    1.8109496 -0.020560698    20.687014     22.43213  -0.13428272 
 3430000      2.30185 -0.073653126    20.868465    23.039115 -0.058823381 
 3440000    2.1940909 -0.042916885    20.514416    22.610738 -0.066272662 
 3450000    2.3026816 -0.0078989089    20.711623    22.948839  0.018841101 
 3460000    2.5742467 -0.042107334    20.663287     23.13107  0.020338949 
 3470000    2.1708818 -0.024174924    20.700331    22.792766 0.0078993787 
 3480000    2.3086841 -0.043691214    20.882329    23.089604  0.015671045 
 3490000    1.7993875            0     20.99142    22.745822   0.12415321 
 3500000    1.8046978 -0.050532474    21.575827    23.284875  0.072907295 
 3510000    1.9685554 -0.029423164    20.705126    22.595045  0.095955024 
 3520000    1.6900995 -0.082011825    20.787688    22.353523 -0.058127649 
 3530000    1.8996007 -0.033962278    20.861748    22.679896  0.056023785 
 3540000    2.0331989 -0.023278638    20.621269     22.58036  -0.03539592 
 3550000    2.2131381 -0.055903863    20.773731    22.875637  0.034913455 
 3560000    2.2437538 -0.0093254574    20.863938    23.042272 -0.025721566 
 3570000    1.8211178  -0.04124165    20.650525    22.384873 -0.035148519 
 3580000    2.1234586 -0.045661458    20.719905    22.744615 -0.038770267 
 3590000    1.7559021 -0.085276706    20.709606    22.336334 0.0036294391 
 3600000    2.2221575  0.032773786    20.776582    22.975959 -0.0075513467 
 3610000    2.1259484 -0.097879422    20.521643    22.496563  -0.04393809 
 3620000    2.2107182 0.0082079272    20.517561    22.681219   0.11833133 
 3630000    1.7573454 -0.013168072    20.539274    22.239518 0.0060784044 
 3640000    1.7387385 -0.063574677    20.985574    22.617269 -0.065992068 
 3650000    1.9893001 -0.087163375    20.454313    22.306718  0.048668288 
 3660000    1.7990006  -0.11526016     20.62356    22.262325   0.11605821 
 3670000    1.9262771 -0.033992591    20.681059    22.525186   0.08739856 
 3680000    2.0559207  -0.04593616    20.495838    22.454425  0.039500408 
 3690000    1.6095271   0.15260898    20.609592     22.33149  0.078248514 
 3700000    1.6918078 -0.024884977    20.871022     22.49565 -0.043000159 
 3710000    2.0900596 -0.044500327    20.247961    22.241269  0.019813983 
 3720000    1.7554193 -0.072858953    21.077765     22.71644  -0.11162388 
 3730000    1.9874715 0.0014802436    20.537937    22.477202  0.044089775 
 3740000    1.9723925  0.042890736    20.946848    22.912822  0.082736533 
 3750000    2.1398907            0    20.537829    22.624222 -0.0031168915 
 3760000    2.3384038 -0.022904474    20.785979    23.043019  0.072084002 
 3770000    2.4523579            0    20.685144    23.076193 -0.026021318 
 3780000    2.2066397  0.013585566    20.825109    22.990168 -0.043899659 
 3790000    2.4078899 -0.00073105043      20.6817    23.028662  0.018321913 
 3800000    2.0755531  0.099890341    20.868042    22.991597  0.074479373 
 3810000    2.3912599  0.019459425     20.76293    23.113868 -0.0043337806 
 3820000    1.8156046 -0.040649821     20.70471    22.434275 -0.066661866 
 3830000    2.0826923 -0.011795746    21.179449    23.198279 -0.0055117229 
 3840000    1.6887188  -0.02448725    21.043494    22.665507 -0.059981763 
 3850000     2.359067  0.020319708    20.401463    22.721873   0.14084527 
 3860000     1.975222 -0.020440002    20.440945    22.346346  0.027443623 
 3870000    2.0757115 -0.0074869015    21.289759    23.306091  -0.11067001 
 3880000    1.6345154 -0.033762666    20.294938    21.854828 -0.0043960591 
 3890000    2.0668014  -0.03950889    20.724958    22.700581   0.12589235 
 3900000    2.6950579 -0.047162323    21.035945    23.616464 -0.098292841 
 3910000    2.6136972    0.1150991    20.647979    23.311432  0.030472696 
 3920000    2.5277261 -0.054700909    20.775186    23.185018   0.18319878 
 3930000    2.6958532 -0.036350096    20.554593    23.146699 -0.056428295 
 3940000    1.9570222 -0.068052264    20.977001    22.817046  0.066394201 
 3950000    1.9876538 -0.039475305    20.986255    22.884742 -0.073995019 
 3960000    2.0877792 -0.084883873    20.605513    22.556214  0.050433552 
 3970000    1.8706969            0    20.885633    22.709562   0.13243923 
 3980000    2.0378236            0    20.883711    22.870589  0.021180963 
 3990000    2.1754312 -0.034039373    20.413097    22.500104  -0.10955595 
 4000000     2.117272 -0.016819433    20.969835    23.017356  -0.10245834 
 4010000    2.0777906 -0.024935246    20.566115    22.567026  0.037495058 
 4020000    2.4464538 -0.021309439    20.747955    23.111938  0.069405282 
 4030000    2.4391575 -0.024988833    20.666502    23.019691 -0.088060888 
 4040000    2.1683835 0.0013839238    20.726827    22.842385 -0.0079453892 
 4050000    2.0273506 -0.036573794     21.04276    22.982853 -0.029642419 
 4060000    2.6740683  0.010970567    20.493191    23.111378  0.070803692 
 4070000    2.1263556 -0.072991795    20.616768    22.616973  0.096657718 
 4080000    1.9266436 -0.049286673    20.362317    22.191508 -0.0068101586 
 4090000    1.8542118 -0.049151398    20.838945     22.59765   0.01936731 
 4100000    2.1273714  0.068436275    20.531969    22.674592 -0.00095799473 
 4110000    2.1284002 -0.032939734    20.830734    22.872985 -0.099045143 
 4120000    2.2854488 -0.024996336    20.855746    23.059063 0.0031942642 
 4130000    2.0388041 -0.017626491    20.527297    22.497505 -0.087725872 
 4140000    2.1607227  -0.11880243    20.931219    22.919122 -0.056964058 
 4150000    2.3232918 -0.041140666    20.652052    22.876121  -0.13155724 
 4160000    1.8909795 -0.046771095    20.843676     22.64061  0.014838272 
 4170000    1.6957302 -0.037851871    20.777449    22.392934 -0.089229882 
 4180000    2.0681067 -0.0073128885    20.887301    22.896392  0.022029797 
 4190000    1.9648585 -0.057416742    20.878329    22.736649 -0.030082478 
 4200000    2.1288788 -0.023880383    20.893945    22.945721  -0.14866406 
 4210000    1.8686092 -0.0095058169    20.549034    22.361422  0.055807635 
 4220000    1.8129572  -0.03719271    20.974754    22.705195  0.088304658 
 4230000    2.0978661 -0.070875315    21.252989    23.227533   0.12502321 
 4240000     1.941001 -0.024271409    20.996788    22.864992 -0.043746458 
 4250000     1.938117            0    21.031753    22.921417  -0.10313646 
 4260000    2.1371011  -0.02497041    20.236261    22.294964  0.049217861 
 4270000    2.7885343 -0.048019067      20.8784    23.549202  -0.11849668 
 4280000    1.9250504 -0.042117599    20.840479    22.675286  0.079294026 
 4290000    1.3135406  0.035204765      20.9515    22.267407 -0.031355363 
 4300000    2.1867471 -0.0062439797    20.826356    22.952191  0.032511675 
 4310000    1.9868812 -0.079978032    20.700768    22.557999   0.12364347 
 4320000    2.0031875   -0.0247367    21.186556    23.114927  0.050502122 
 4330000    2.0187944 -0.014101603    20.659074    22.613297   0.15886176 
 4340000    1.7572603  0.011508322    20.690616    22.415454 0.0090044145 
 4350000    1.9786008            0    20.834184     22.76332 -0.081358424 
 4360000    2.0799833 -0.038842504    20.518361    22.507503   0.03789897 
 4370000    2.1492678 -0.042176614    21.521512    23.574871  -0.12357235 
 4380000     2.121669            0    20.679757    22.748385 -0.044255165 
 4390000    1.9140316 -0.081763453    20.518434    22.302851 -0.076646523 
 4400000    1.6075584 -0.065231673     20.64553    22.147668   0.14084982 
 4410000    2.0350437 -0.021570106    20.518219    22.480816 -0.023333417 
 4420000    2.3753368 -0.010365992    20.783797    23.089385  0.027681842 
 4430000    1.9730734 -0.019005843    20.558381    22.463122   0.10440177 
 4440000    1.9518293 -0.046923281    20.531823    22.387933 -0.063490572 
 4450000    2.0177805            0    20.485617    22.452953  0.082187557 
 4460000    2.2726156 -0.048310974    20.595203    22.762692  0.029237716 
 4470000    1.8554642 -0.024989685    20.779836    22.563924   0.11593691 
 4480000    1.5939615   0.02709959    20.440693    22.021905  0.028683013 
 4490000    2.5363767  -0.04671319    20.555977    22.982231 0.0019789956 
 4500000    1.8082564 -0.056090728    20.856832    22.563791  0.041642608 
 4510000    1.9661785 -0.046892805    20.550086    22.420218  0.015730347 
 4520000    1.5397821            0    20.403229    21.904516 -0.036056824 
 4530000    1.5577682 -0.014772533    20.714465    22.218516  0.041050423 
 4540000    1.8377512 -0.032107525    21.137313    22.897013  0.061675644 
 4550000    1.9070284 -0.031125969    20.634212    22.462439 -0.062442561 
 4560000    2.0175939  0.043044233    20.895585    22.905783   0.10639888 
 4570000    1.4334957  -0.04328465    20.734922    22.089296  -0.09296903 
 4580000    2.7916144 -0.072527404    20.839873     23.48917  0.091775866 
 4590000    2.0302458 -0.067236533    21.071973    22.984226   0.30492999 
 4600000    2.3067197 -0.064306608    20.850518    23.035263  0.073975509 
 4610000      1.57241 -0.069990222    20.542374    22.005483   0.18172426 
 4620000    2.1170146 -0.043047149    20.776793    22.797836 -0.080892471 
 4630000    2.1144746 -0.088428033    21.020325     22.99351   0.25744073 
 4640000    1.5213965 -0.023872142    20.617008    22.076497  0.043089397 
 4650000    2.1091411  0.053395848    21.013366    23.123174 -0.055081807 
 4660000    1.3195553 -0.023644066    20.603085    21.866008 -0.054609496 
 4670000    2.2223324   0.10498866    20.608467     22.88023   0.10189331 
 4680000    1.8254597 -0.029409818    20.990662    22.741076  -0.13959052 
 4690000    2.3470968            0    21.055441     23.34386 -0.087038356 
 4700000    1.6660949 -0.059959457    20.688745    22.253228 -0.073991789 
 4710000     2.555516 -0.077991252    20.749974    23.163611  0.068176354 
 4720000    1.9206849 -0.067720551    20.988183     22.79313 -0.097851887 
 4730000     2.073436 -0.043119336    20.543787    22.522268 0.0007264969 
 4740000     2.311011  -0.03958431    20.964209    23.177861  -0.10871712 
 4750000    1.4508441 -0.031599884    20.836048    22.219021  0.044395338 
 4760000    1.7884755 -0.081190968     20.36462    22.027192 -0.0039339388 
 4770000    2.1773119 -0.047540601    20.866403    22.941742 -0.027253394 
 4780000    1.8779462 -0.024622014    20.471775     22.27815 -0.072109287 
 4790000    1.6304744            0    20.814418    22.404131  0.082459274 
 4800000    2.0815932 -0.013052434    20.720926    22.737427   0.10926504 
 4810000    1.8133806 -0.082462703    20.636106    22.321689  -0.14022045 
 4820000    2.3500449 -0.044504011    21.020596    23.267386 -0.0027906943 
 4830000    2.9533781 -0.080712766    20.994212    23.793043  -0.05931971 
 4840000    2.6285812  0.025587455    20.770369    23.358823 -0.063268938 
 4850000    2.3719936            0    20.936328    23.249022  -0.15471277 
 4860000    2.1607024 0.0072956385    20.662699    22.776679  -0.11841337 
 4870000      2.11375            0    20.506748    22.567654  0.016477364 
 4880000    1.8158748 -0.012397715    21.133922    22.892002  -0.13274505 
 4890000    2.2451347 -0.041873185    21.049959    23.197092 -0.049709839 
 4900000    1.6895539    0.1588015     20.66618    22.472297   0.05749958 
 4910000    1.6246069 -0.093364766    20.609035    22.099662  0.039398037 
 4920000    1.9389913  -0.04830813     20.91356    22.755769  0.082380878 
 4930000     1.889937  0.022428667    20.728781    22.593898   0.02626414 
 4940000    1.8125311 -0.036404566    20.667439    22.398252  0.014052891 
 4950000     1.584133 -0.081441644    20.489646    21.952734 -0.020285804 
 4960000    1.5163385  -0.10231081     20.64625    22.022369  0.079281288 
 4970000    1.9295387  -0.08122427    20.605849    22.405925 -0.032149931 
 4980000    2.2763833 0.0054221882     20.85978    23.084676  -0.16376624 
 4990000    1.7184728 -0.0038717735    20.765684    22.437323 -0.004701466 
 5000000    2.3717486 -0.061044483    20.787181    23.038592  0.017620079 
 5010000    2.4485403 -0.028216258     20.45896    22.818071  0.050047255 
 5020000    1.7364556  -0.10906293    21.201133    22.785114   0.15275725 
 5030000     1.869604 -0.024875869     20.32029    22.118278  0.022376332 
 5040000    1.7947623  0.002177376    20.742529      22.4946 -0.083567145 
 5050000    2.2338611            0    21.012562    23.190576  0.018509946 
 5060000    1.6135639  0.032568198    20.484174    22.089967 -0.032782147 
 5070000    2.0577214 -0.0021264577    20.727234    22.731386 -0.083008987 
 5080000    1.9584682  -0.12606111    20.514183    22.297629   0.04601561 
 5090000    2.6805733  -0.13043112    20.424426    22.907554  0.066153399 
 5100000    2.3877236            0    20.625549    22.953579 -0.044028294 
 5110000    2.3722522 -0.066912747    20.760438    23.006471 -0.015733271 
 5120000    2.2644444 -0.0028504389    20.779073    22.984056   0.16966492 
 5130000    2.1696924 -0.024280115    21.053365    23.144535 -0.038243146 
 5140000    1.5139686  -0.13745675    20.477175    21.815838 -0.053409312 
 5150000    1.9199099 -0.056545624    20.771802    22.587168 -0.031407153 
 5160000    1.8109194  -0.02498538    20.604622    22.345283 -0.021863694 
 5170000    1.3882078 -0.081336841    20.746557    22.018723  -0.05874307 
 5180000    1.7768212            0    20.722622    22.455023  -0.14204036 
 5190000     1.639971 -0.037214204    20.601856    22.163613  0.029939837 
 5200000    1.5947787            0    20.673025    22.227934 -0.023331891 
 5210000    1.4795711 -0.021423381    20.516885    21.938044   0.02855877 
 5220000    2.0027887 -0.063059478    20.603506    22.493166 0.0043334073 
 5230000     1.686756 -0.035061874    20.701031    22.310557   0.01320341 
 5240000    1.6707415 -0.044716606    20.669867    22.254124 -0.060089016 
 5250000    1.9601923 -0.0091294796    20.749867    22.651925 0.0055983847 
 5260000    1.9054404 -0.024879662    20.781229    22.614154 -0.036562173 
 5270000    2.6993224 -0.067619731    21.252239    23.816458  0.010924528 
 5280000    2.1625956 -0.063733384    20.958422    23.003219  0.073529524 
 5290000    2.6955129 -0.022892997    20.589229    23.194461  0.038998344 
 5300000    3.0480535  0.062998959    20.545354    23.580205  0.041231539 
 5310000    2.2321879 -0.060307834    20.535985     22.65206 -0.036964425 
 5320000    2.3282266 -0.069017642    20.781861    22.982865  -0.13364232 
 5330000    2.0840613 -0.024909417    20.618667    22.625718 -0.023717375 
 5340000    3.2951045  -0.06378477    20.666477    23.815419  0.042129346 
 5350000    2.1641493 -0.054945636    21.145882    23.200982 -0.032791578 
 5360000    1.6599869 -0.019996839    20.603496    22.201987 -0.038358403 
 5370000    2.3294215 -0.017846005    20.939788    23.193128 -0.061462004 
 5380000    1.5897486 -0.068703404    20.722163    22.203464    0.1309684 
 5390000    1.9946799  0.028215811    21.056113    23.029142  -0.10835701 
 5400000    2.0250038 -0.030626201    21.088281    23.032034  0.055105218 
 5410000    2.4074907  0.075189385    21.094885    23.517378 -0.003974942 
 5420000    1.5479337    0.2339384     20.58491    22.328084  -0.10791116 
 5430000    2.1829057 -0.070233525     20.93059    22.988689 -0.0075278748 
 5440000    1.9626911            0    20.711127     22.62475  -0.10398863 
 5450000    1.8726556   0.04927063    20.825347    22.700457  -0.10202856 
 5460000    1.9910869 -0.045247922    20.722088     22.61815  0.025593777 
 5470000    2.8196438 -0.023963895    20.429955    23.155144  0.028565193 
 5480000      1.81137 -0.024660836    20.827063    22.568488 -0.067757937 
 5490000    2.6856029 -0.037766618    21.101448    23.682144  -0.13916607 
 5500000    2.1369926  -0.04675039    21.055656    23.092474  -0.15887253 
 5510000     1.813601 -0.040659176    20.832125    22.559727 -0.020223426 
 5520000     1.596164 -0.036386877    21.087197     22.60707  -0.19472595 
 5530000    1.8329455 -0.075112746    20.673996    22.386005 0.0068128882 
 5540000    1.9902958  -0.06229538    20.629962    22.508205  -0.07253322 
 5550000    1.7250677 -0.035071513    20.757881    22.404751  -0.11471122 
 5560000    2.0359469  -0.11486392    20.318396     22.18858 -0.00055620961 
 5570000    2.0085278 -0.047835311    20.744676    22.655156 0.0042195744 
 5580000    2.2638365 -0.005179716    20.417244    22.619305 -0.051265195 
 5590000    1.8122684 -0.057410967    21.013262    22.722812 -0.040756031 
 5600000      2.13301  -0.01138008    20.795309    22.863614   0.10130893 
 5610000    1.7597812 -0.049849643    20.259139    21.925076 -0.027249222 
 5620000    1.5981773 -0.036529772     20.73429    22.255983 0.0039897635 
 5630000    2.0138227 -0.079425865    20.587343    22.471394   0.10490715 
 5640000    1.5986414  -0.12221883    21.126214    22.562671  0.067831503 
 5650000    2.1741198 -0.024859084    20.816983    22.911891 -0.092909531 
 5660000    1.9066804 -0.090622856    20.407324    22.175714 -0.031703382 
 5670000    1.5664213            0    20.960682    22.487943 -0.078509355 
 5680000    2.5428308 -0.083308492     20.45744    22.853391  0.044062521 
 5690000    2.1266198 -0.045862292    20.942716    22.970308 -0.027751359 
 5700000    1.8134832 -0.056884852    20.942046    22.653307  -0.05085277 
 5710000    2.7037496 -0.060226178    20.718491     23.29442  -0.01571842 
 5720000    2.5881675  0.068499396    20.866124    23.458087 -0.064831112 
 5730000    2.1190449 -0.030118687    20.844556    22.880506  -0.19971658 
 5740000    2.0480226 -0.019145085    20.771842    22.749519 -0.023200892 
 5750000    1.8142886 -0.082690871    20.768197    22.454438  0.078608639 
 5760000    2.1532867 -0.069535953    21.040506    23.070424   0.01537871 
 5770000    1.9836431 -0.049199621    20.612781    22.497633   0.14345909 
 5780000    1.7442308 -0.047772104    21.102181    22.755034   -0.1435397 
 5790000    2.0247074 -0.058709917    20.501445    22.416825   0.17250757 
 5800000    2.2820394 -0.024701055    21.101231    23.301519  0.034846196 
 5810000    1.6473702 -0.022410261    20.776969    22.360745 0.0080011846 
 5820000      1.73285 -0.022547341     20.39959    22.066571  0.092204845 
 5830000    2.0482906 -0.011734294    21.409132    23.394481 -0.068881822 
 5840000    1.8121675  -0.05339715    21.298254    23.011721 -0.015739155 
 5850000    2.0006304 -0.030156795    20.537184    22.457642 -0.036094828 
 5860000     1.918353 -0.018493915     20.80972     22.66162  0.063853256 
 5870000    1.9462965 -0.025969861    20.863324    22.734993 -0.055038513 
 5880000    2.3959179 -0.024906587    20.479013    22.790126 -0.055890701 
 5890000    2.1605805 0.0092818553    20.713609    22.829457 -0.024519087 
 5900000    2.1137158 -0.036408585    20.578209    22.602673  0.046409742 
 5910000    2.2475775  -0.04371287    20.648227    22.795902  -0.11922745 
 5920000    1.5622359 -0.017479585    20.940943    22.446644 -0.089910572 
 5930000    1.7765153  0.035031246     20.47412    22.241254   0.11108044 
 5940000    2.2312546            0    20.724902    22.900375 -0.018492734 
 5950000    2.1167749 -0.023662159    20.767017     22.80721    0.1353136 
 5960000    2.3044293 -0.048222668    20.853522    23.052118 -0.025458856 
 5970000    1.8327309 -0.040170608    20.939172    22.685914 -0.015633706 
 5980000    1.9577706 -0.014164926    20.722468    22.617129 -0.021684488 
 5990000    1.6969903 -0.012144351    20.727708    22.370129 -0.094467256 
 6000000    2.4238936 -0.040419648    21.091631    23.414508 0.0079711169 
 6010000    2.0618038 -0.019525545    20.386533    22.377267  0.086556039 
 6020000    1.7481737 -0.021249724    20.578081    22.261301 -0.0037542592 
 6030000    1.8279406 -0.034910689    20.799365    22.546696  0.020834608 
 6040000    2.2043796 -0.019269221    20.965498    23.095499  -0.10821253 
 6050000     2.172004  0.025248269    21.079424    23.222376 0.0032365056 
 6060000    2.2981151 -0.013295717     20.45083    22.678196  0.072130617 
 6070000    1.9282341 -0.044388119    20.713891    22.549531 -0.0063901684 
 6080000    2.1596018 -0.046086956    20.572377    22.631901   0.17298418 
 6090000    1.9084975  -0.05119903    20.525151    22.334737 -0.025596349 
 6100000    2.1211512 -0.012380059    20.883941    22.939684  0.041682362 
 6110000    1.7883718 -0.045669397    21.251945    22.949938   0.18685322 
 6120000     1.689138 -0.083706479    20.610076    22.173279 -0.033267842 
 6130000    2.1360951 -0.031832407    20.352046    22.402906 -0.042450092 
 6140000    2.4364357 -0.068659572    20.640053    22.946918  0.026592156 
 6150000    2.4717815 -0.021375337    20.380675    22.769286  -0.10454926 
 6160000    1.6280886 -0.019217592    20.317086    21.885254   0.04481229 
 6170000    1.5473036 -0.019551366     20.54639     22.03546 -0.021928877 
 6180000    1.3719971  0.038341476    21.045942    22.421981 -0.068828183 
 6190000    2.1250347 -0.024836134    20.963071    23.010144   0.12752205 
 6200000     2.255792 -0.041720355      20.9711    23.128777 -0.044778098 
 6210000    2.0544519  0.076363069    21.259141    23.338595 -0.073257705 
 6220000    2.0946313 -0.065079429    20.725508    22.702694  0.017341643 
 6230000    2.3048968 -0.040369814    20.696672    22.903576 -0.093451713 
 6240000     1.722422            0    20.582786    22.262147 -0.037591714 
 6250000    1.8155128 -0.071845496    20.686229    22.384509  0.059962091 
 6260000    2.1290327 -0.045941105    20.434208    22.464074   0.10029317 
 6270000    2.4164136 -0.052915148    20.666643    22.969731  0.080351943 
 6280000    1.8043784  0.014113998    20.675276    22.448659 -0.0024578081 
 6290000    2.2598719 -0.024243019    20.783922    22.963054 -0.0096766815 
 6300000      1.31122  0.024215678    20.870719    22.173375  -0.04903906 
 6310000    2.1901162 -0.044208103    20.679414    22.770569   0.13378431 
 6320000    2.1837059 -0.018925464    20.547909    22.658096  0.090281519 
 6330000    2.0810755 -0.067054163    20.549915    22.511909   0.12834812 
 6340000    2.0661952 -0.020967519    20.231836    22.225409  0.067854787 
 6350000     2.141695 -0.028897568    20.812359    22.871614  0.025590782 
 6360000    2.0108405 0.0058922232    21.431793    23.398255  0.048235686 
 6370000    2.4558391  -0.04440494    21.134384    23.484422 -0.096334042 
 6380000    1.8525204            0    20.763965    22.570173    -0.100085 
 6390000    2.2793423 -0.089731436    21.218815    23.351442 0.0034182625 
 6400000    1.6985516 -0.014284564    21.295496    22.937299  -0.21992605 
 6410000    1.7998951 -0.017745942    20.564983    22.302134   0.10322665 
 6420000    1.8107699 -0.083488352     20.59177    22.273782  0.064262868 
 6430000    3.0896016 0.0011820187    20.470755    23.484298    0.1102432 
 6440000    1.9444798 -0.033429581    20.524197    22.386636 -0.013203906 
 6450000    1.9532178  0.022425443    21.026989    22.953802 -0.069761393 
 6460000    2.1086047 -0.043672857    20.892868    22.905084  0.079698067 
 6470000    2.1632695 -0.080097827    21.081205    23.110295 -0.050577515 
 6480000    3.0682829 -0.065777654    20.863832    23.789631  0.095390955 
 6490000    2.5765147            0    20.450402    22.962504  0.065546713 
 6500000    2.0544224  0.087605266    20.816959    22.907626  0.060215396 
 6510000    2.5216163 -0.017399201    20.643254    23.084431  0.061528196 
 6520000    2.0165276  -0.10996626    20.417452      22.2736  0.024002895 
 6530000    1.9085101 -0.015936093    20.510522    22.355383   0.07721257 
 6540000    2.1769543  -0.07329028    20.806521    22.855761   0.12105365 
 6550000    1.8731454 -0.077287304    20.671826    22.420856 -0.076382372 
 6560000    2.0374658 -0.031636698    21.377163    23.332055  -0.21479128 
 6570000    1.8365514 -0.047125983    20.781385    22.524897 -0.062380827 
 6580000    1.7798039 -0.019814169    20.935698    22.651193 -0.074400625 
 6590000    1.8410524            0    20.618296    22.413322 -0.080821562 
 6600000    1.8636178 -0.025792417     20.95538    22.746615 -0.010531836 
 6610000    1.6868315 -0.039600334    20.843895    22.448956  -0.10700586 
 6620000    2.0495775  -0.07195217    20.589444     22.51583   0.02917842 
 6630000    2.4810394 -0.057970223    20.526347     22.88739  0.019007223 
 6640000    1.9746068 -0.027700292    20.694222    22.591763  -0.11347216 
 6650000    2.2969856 -0.044686342    20.664183    22.859058 -0.088526825 
 6660000    1.8145083 -0.024649023    20.456223     22.20072   0.20700932 
 6670000    2.1179623 -0.032133102     20.41893     22.45181    -0.090346 
 6680000    2.2297263 -0.075983601    20.566692    22.664692   0.13045673 
 6690000    2.5919895            0    20.903965    23.431155 -0.096422232 
 6700000    2.0196916 -0.045526568    20.608498    22.532171  0.023086484 
 6710000     2.190024            0    20.890968    23.026242  0.020496734 
 6720000    1.8519326 -0.047809476    20.521269    22.279093  0.031641358 
 6730000    2.2923501            0    20.906132    23.141173 -0.088146683 
 6740000    2.2718206  -0.03228674    20.593669    22.776407  0.076779602 
 6750000    2.2178845 -0.050642158    20.763932    22.875728 -0.038786352 
 6760000    1.7627588 -0.045939064     20.93648    22.609231  0.025036172 
 6770000    1.7245947 -0.065110726    21.204018    22.820387  -0.16372776 
 6780000    1.9196002 -0.034944239    20.822142    22.658808   0.20867117 
 6790000    2.2521924 -0.0029980237    20.483773    22.676663  0.036764153 
 6800000    1.5108377 -0.0064212252    21.086099    22.552744 0.0065629916 
 6810000    1.5299904 -0.034535522    20.527438    21.984643  0.031325023 
 6820000    1.9142881 -0.019490585    20.751791    22.598731  0.014019079 
 6830000    2.2427452 -0.058259242    20.346836    22.475253  0.091036598 
 6840000    2.2059645 -0.024799436    20.792062    22.918078  0.050255958 
 6850000    2.0729198            0    20.894059    22.915156      0.19235 
 6860000    2.8125591 -0.062471214    20.499668    23.179442  0.074092803 
 6870000    2.0596914  0.044677662    20.894539    22.947415   0.22962598 
 6880000    2.2774498 -0.024235553    20.860926    23.057204  0.025649467 
 6890000    2.0930358 -0.065333589    20.312392    22.287769  0.015698862 
 6900000    2.4344099 -0.014102317    20.711134    23.070581 -0.013235696 
 6910000    2.2534501  -0.02485923    20.841957    23.014212 -0.059725667 
 6920000    1.8693362 -0.043322457    20.627631    22.406911   0.13683109 
 6930000    1.9785671  -0.02458376    20.657755    22.562274   0.30657465 
 6940000    1.5141089 -0.078969047    20.827734    22.225021 -0.021365997 
 6950000    1.8662902 -0.048620008    20.350095    22.121108   0.01888435 
 6960000    2.5130008  0.029417822    20.878846     23.35844   0.05206464 
 6970000    1.7150846  -0.14288993    20.931503    22.460821 -0.042367255 
 6980000    1.7693885 -0.024980738    20.729855    22.430028  -0.14362175 
 6990000    2.4891149 -0.0092617221    20.595575      23.0132  0.066252659 
 7000000    2.6560026 -0.006961289    20.297242    22.879883  0.010849956 
 7010000    1.7600802 -0.016375365    20.902692    22.602394 -0.044972137 
 7020000    2.0753791 -0.019353332    20.714169     22.71831  0.030900409 
 7030000    2.0560707 -0.048450038    20.610862    22.567081 -0.027794037 
 7040000    1.8329006 -0.073934387    20.694607    22.407751   0.01539947 
 7050000     2.153601 -0.062110889    20.312445    22.350095  0.079234721 
 7060000    1.6806945 -0.059178495    20.762387    22.341886   -0.1110325 
 7070000     1.674351 -0.043374628    20.806756    22.395873 -0.053338505 
 7080000     1.832446   0.13099662      20.5434    22.461031 0.0015288136 
 7090000    1.9504697 -0.079187742    20.947523    22.770043   0.13721642 
 7100000    2.4324156 -0.015189082    20.760958    23.117374  0.074453375 
 7110000    1.9708977 0.0063161537    20.315699     22.24364   0.01475925 
 7120000    1.7542982 -0.038998529    20.833748    22.505191  0.015103906 
 7130000    2.0983465 -0.041482675    20.630284    22.634689  0.014381409 
 7140000    1.9271506 -0.022440556    20.544346    22.400878  0.065980832 
 7150000    2.1125665   0.01644708    20.667688    22.743888  0.045654535 
 7160000    1.6528874  -0.08965008    20.787842    22.309758  -0.11107191 
 7170000     1.971274 -0.047155256    20.823872    22.698709  0.039243788 
 7180000    2.6801951 -0.029998424    20.783871    23.367062  0.056100326 
 7190000    2.2745538 -0.025454464    20.533222    22.725458 -0.044942379 
 7200000    2.1442306 -0.033917306    20.985436    23.042144   0.14774356 
 7210000    1.8766081  0.023750527    20.879666     22.73311  0.097684548 
 7220000    1.8752529 -0.029261914    20.643134    22.442244 -0.065054097 
 7230000    1.9924704 -0.0022441043    20.904025     22.84444 -0.060897395 
 7240000    1.4233913 -0.091658585    21.033708    22.329855  0.034091601 
 7250000     1.569156            0    20.445533     21.97546 -0.035516454 
 7260000    2.5117262 -0.024761442    20.520152    22.944323 -0.027658555 
 7270000    2.3022153  -0.04998628    20.548269    22.742943  0.021151836 
 7280000     2.261497 -0.0064206932    20.854508    23.053047  -0.18053787 
 7290000     2.070995  0.030564064    21.025163    23.074948  -0.14412385 
 7300000    2.0942531 -0.033458772    20.908564    22.917002   0.13332564 
 7310000    2.2028767            0    21.087214    23.235019 -0.090675963 
 7320000    2.4843831 -0.071335641    20.801823    23.152761   0.16844559 
 7330000    2.4061093  0.041991679    20.750156    23.138104   0.17308052 
 7340000    1.1562673 -0.048134318    20.793126    21.872352   0.14608473 
 7350000    1.8555968 -0.031477044    20.905024    22.682754  0.017286777 
 7360000    2.5262527            0    20.971144     23.43424  0.046511935 
 7370000    1.4808297 -0.061999267    20.675915    22.057725 -0.023706091 
 7380000    2.6021953  -0.01283023    20.432991    22.957302 -0.005269305 
 7390000    1.5814649 -0.042723379    20.935517    22.434722 -0.096829296 
 7400000    2.5725073 -0.032201544    20.837155    23.313148  0.044952104 
 7410000    2.1542324 -0.022428261    20.825155    22.903103 0.0036391327 
 7420000    1.8892999 -0.010826333    20.804586    22.635827  -0.05105106 
 7430000    2.6504399 -0.064189298    20.605491     23.12548  0.053442926 
 7440000    2.3846913  -0.06818118    20.703297     22.96019  0.058894583 
 7450000    2.2222291  -0.11091193    20.521433    22.577195  0.037364252 
 7460000    1.9982159  0.021223361    20.635026     22.60451  0.034428999 
 7470000     1.637331            0    20.488792     22.08519   0.10261938 
 7480000    1.9817987 -0.074272031     20.97133    22.829311  0.038174808 
 7490000    1.9467937 -0.036863918    20.729186    22.590446 -0.077921918 
 7500000    1.7588226            0    20.691736    22.406588 -0.043081653 
 7510000    1.7915745 -0.024976829     20.48479    22.206598 -0.053554194 
 7520000    2.1731705  0.050105607     20.91744    23.086387   0.16524573 
 7530000    1.5601632 -0.093037805    20.927767    22.355889  -0.09999223 
 7540000    1.6043744  0.010678948    20.361087     21.93603  0.071568708 
 7550000    1.6756685 -0.044375871    20.390694    21.980095   0.12185268 
 7560000     2.620363  0.010024473    21.077168    23.642047 -0.066098716 
 7570000    2.0577654 -0.011676147    20.792402    22.787047  0.020592253 
 7580000    1.5476589 -0.041551011    20.539936    22.007353   0.17400359 
 7590000    1.7432659  0.017729328    20.739879    22.457293   0.16631373 
 7600000    2.6500842  0.016661041    20.266822    22.867315 -0.0075691065 
 7610000    2.4027759 -0.075282465    20.577057    22.844481  0.069996652 
 7620000    1.8464099 -0.018514221    20.885212    22.666947  0.033504249 
 7630000    2.5701696  -0.03531241    20.823959    23.294562  0.028180878 
 7640000    2.1423055  -0.03114429    20.714571    22.772175  0.035179254 
 7650000    2.4051667 -0.019358448    20.756519    23.082199 -0.024100259 
 7660000    2.7633048 -0.022066286    20.727621    23.399777 -0.055687789 
 7670000    2.0293404 -0.0015592378    20.796518    22.773566  -0.11654496 
 7680000    2.3410427  -0.02885212    21.129662    23.383326 -0.018718383 
 7690000    2.1825109 -0.024431479    20.932909    23.036426 0.0049165005 
 7700000    1.8879111 -0.020427271    20.389004     22.20929  0.015499132 
 7710000    2.6593545 -0.049973584    20.488615    23.031512  -0.14884552 
 7720000    1.7531965  -0.10275024    20.558321    22.164937   0.19210809 
 7730000    1.7488104  -0.02469587    20.327837    22.008231  0.026481071 
 7740000    2.6098807 -0.088834918    20.708055    23.163854   0.11789573 
 7750000    1.6263498 -0.070894502    21.371859    22.886655 -0.099960199 
 7760000     1.879106  0.051944304    20.530733    22.414806   0.10926694 
 7770000    2.0166862 -0.0055332379    21.050599    23.011335   0.17213236 
 7780000    2.3252134 -0.046767808    20.462804    22.683119  0.018254365 
 7790000    1.9777566            0    21.162835    23.091148  0.058515757 
 7800000     2.903398   0.05805656    20.585847    23.474717  0.045238357 
 7810000    2.6907491 -0.084564307    20.640189    23.179105  0.027780405 
 7820000     1.870616 -0.068043647    20.552624    22.308431 0.0088397209 
 7830000    1.7612455  -0.03829863    21.023328    22.702244  -0.10412243 
 7840000    1.7630806 -0.049336218     20.69428    22.363948 -0.052846362 
 7850000    1.9937336 -0.0077996501    21.175361    23.111452 -0.038401828 
 7860000    2.3310902  0.024813359    20.742486    23.040112 -0.0092887829 
 7870000    1.7563308 0.00042974465    20.712006    22.424858  0.054068204 
 7880000      2.41659 -0.035327936     20.48534    22.806187 -0.023805157 
 7890000    2.1370836  0.038315837    20.565341    22.687314 -0.063585175 
 7900000    2.0133761  0.024862851    20.814772    22.802677  0.079800858 
 7910000    2.3204255 -0.0076586863    20.553485    22.808241 0.00020611136 
 7920000    1.8374307 -0.049264007    20.850197    22.592428  0.051745704 
 7930000    2.1439352 0.00082741742    20.758135      22.8493  -0.10159369 
 7940000    1.9941517 -0.024605459    21.213152    23.132844  0.030242592 
 7950000    2.4360846 -0.0096524802    20.773347    23.138877 -0.019538006 
 7960000    1.8963127 -0.092633647    20.542108    22.298379   0.01593751 
 7970000    1.7803429 -0.012613987    21.105883    22.829103  -0.13924525 
 7980000    2.1946112  -0.04972479     20.59643    22.686451 -0.050892509 
 7990000    2.5772844 -0.030311916    20.298412    22.780952   0.09278402 
 8000000    1.7510967 -0.033365378    20.686611    22.360565 -0.042709813 
 8010000    1.6743043  0.020694995    20.499725    22.152867  0.055626159 
 8020000    1.9425923            0    20.871576    22.765604   0.20218221 
 8030000    1.9613963 -0.014629294    20.463666    22.361398   0.13258309 
 8040000    2.3301437 -0.0072007489    20.884288    23.148978   0.02889622 
 8050000    1.8607247            0    20.637344    22.451551  0.069747924 
 8060000    1.7369563 -0.064801052    20.761416    22.390147 -0.038859657 
 8070000    1.9749315 -0.032743358    21.173022    23.065837  -0.14097445 
 8080000    1.3441238 -0.044842557    20.318806    21.584484  -0.13947045 
 8090000    1.7303369 -0.026179771    20.435377    22.096276 -0.0021119609 
 8100000    1.7951404            0    20.119468     21.86973 -0.013341098 
 8110000    2.2368356 -0.030967963     20.60739    22.757336   0.13784918 
 8120000    1.7487518  0.018120594    20.709836     22.43299  0.022316633 
 8130000    2.5869023            0     20.83943     23.36166 -0.095811221 
 8140000    2.0521821 -0.058400462    20.936803     22.87928 -0.087999931 
 8150000    1.9619597  -0.10712783     20.42764    22.233423  0.013762846 
 8160000    1.9615722            0    20.613602    22.526135   -0.1054762 
 8170000     2.467079 -0.024999982    21.095957    23.476359  0.033694837 
 8180000    2.1465651 -0.095215019    20.480456    22.478142  0.015688428 
 8190000    2.0138696            0    20.550297     22.51382 -0.065134248 
 8200000    2.0244249            0    20.908418    22.882232  -0.15602996 
 8210000    2.2391053 -0.046780476    20.689365    22.825712  0.053916116 
 8220000    2.2120109  -0.10059112    20.962332    23.018451   -0.1664217 
 8230000    1.9653134 -0.042660064    20.686951    22.560471   0.02350064 
 8240000    2.1905856 -0.044300365    20.182557    22.274077  0.063764389 
 8250000    1.7321433 -0.046821842    20.857854    22.499872  -0.20318252 
 8260000    2.3753353  0.016165265    20.542958    22.875075  0.083327565 
 8270000    2.2665136  0.003530218    20.444427    22.657808  0.066148169 
 8280000    2.4532787   0.11392739    20.551038    23.056912   0.06883506 
 8290000     2.108468 -0.018967973    20.644141     22.68093  0.009659743 
 8300000    2.0884113 -0.044667442    20.861737     22.85327  -0.13102018 
 8310000    2.4024667 -0.018311778    20.839923    23.164016 -0.066901504 
 8320000    2.4728032 -0.018298971    20.828438    23.221122 0.0088484205 
 8330000    2.2961905 -0.020614043     20.77637    22.994542 -0.083935247 
 8340000    1.9833298 -0.0027298224    21.017704    22.948721 -0.023036103 
 8350000    1.7960879 -0.087843202    20.697595    22.360937  0.016114672 
 8360000    2.3719079 -0.038006646    20.930493    23.205096 -0.087193422 
 8370000     1.669398            0    20.674851    22.302514  -0.06765388 
 8380000    1.7657298  -0.01879895    21.111838    22.814626 -0.092671583 
 8390000    1.4672915  -0.12568711     20.96274    22.267662 -0.0020079829 
 8400000     2.697882 0.0081570983    21.093873    23.732465  0.041266863 
 8410000    2.1180547 -0.029495497    20.213634    22.249242  0.066454633 
 8420000    1.8072733            0    20.851133    22.613224  0.008077315 
 8430000    2.3053482 -0.074545786    20.839907    23.013076 -0.0017686264 
 8440000    1.7910642 -0.021601168     20.55167    22.276356    0.1065816 
 8450000    2.2079611 -0.033390495    20.882892    23.002263  0.090153532 
 8460000    1.5634878 -0.020700335    20.844996    22.348696   0.14974208 
 8470000    1.7792567 -0.017375924    20.573907    22.291307  0.051699154 
 8480000    2.4200283  -0.11581839    20.859597    23.103306 -0.0076891417 
 8490000    1.9616707 -0.079368929    20.473317    22.306577 -0.065368143 
 8500000    2.1379014 -0.037592686    21.003825    23.050687  0.049542555 
 8510000    2.4661186 -0.038293661     20.52239    22.888562 -0.045376694 
 8520000    2.2912224   -0.1365895    21.090538     23.18789 -0.0089810187 
 8530000    2.4581098            0    20.735172    23.131829  0.079322758 
 8540000     1.804336  -0.10765377    20.460574    22.112148 -0.042943907 
 8550000    1.9657756   0.05859303    21.131647    23.106871 -0.075084308 
 8560000    2.4222397 -0.021403373    20.883922    23.224203 -0.086122483 
 8570000    2.6338497 -0.053813465    20.600891    23.115081 -0.057846642 
 8580000    1.3430151 -0.085373993    20.458598    21.682664 -0.054351581 
 8590000    2.6134133  0.065640602    20.695949    23.309668  0.079158541 
 8600000    2.1716139 -0.016929606    20.865122    22.965516  -0.09241835 
 8610000    1.6795615 -0.024865241    21.057112    22.669819  0.004946738 
 8620000     2.181064  0.013438713    20.537553    22.677529 -0.039293208 
 8630000    1.9700537  -0.06083612    20.816073    22.676039  0.037386126 
 8640000    1.6712393 -0.044275046    20.438274    22.023457  0.054387151 
 8650000    2.0462953 -0.057330625    20.825646    22.763453 -0.032374182 
 8660000    1.6474585 -0.052301208    20.759625    22.313595  0.074258075 
 8670000    1.6743296 -0.024876008      20.4211    22.028695 0.00015488018 
 8680000    1.5216649 -0.046663113    20.434582    21.871542  0.024554555 
 8690000    1.3522347            0    20.836139    22.154568 -0.060273196 
 8700000    1.6077938 -0.044614244    20.814653    22.337638   0.11657976 
 8710000    1.4406492 -0.068757472    20.586665    21.922541   0.05858536 
 8720000    1.7317368 -0.022974914    20.689148    22.354617 -0.086566457 
 8730000    2.5783614 -0.024938282    20.401028    22.889992   0.06790424 
 8740000    2.0925044            0    20.674555    22.714747  0.080497122 
 8750000    2.0403931 -0.022875521    20.652707    22.619215  0.029019282 
 8760000    2.0240226 -0.050185265    20.554999    22.478236  0.034361375 
 8770000    1.6915211 0.0029990346    20.632126    22.284358  0.047099621 
 8780000    2.2199401 -0.047340513    20.621803    22.738904  0.048488366 
 8790000    2.2668667 -0.034991412    20.802017     22.97722   0.14787164 
 8800000    2.0616114 -0.060755137    20.500215    22.449531    0.1303786 
 8810000    2.3263893 0.0074977115     20.47047    22.746198 -0.015454196 
 8820000    2.1651337 -0.012376341    21.205202    23.303831  -0.12255287 
 8830000    1.8286524 -0.082960517    20.650613    22.350588  -0.12295831 
 8840000    1.5078423 -0.034539306    20.410747    21.846354   0.12382487 
 8850000    2.0660001            0     20.78432     22.79867   0.16222093 
 8860000    1.9147465 -0.022287039    20.752199     22.59679 -0.00069691887 
 8870000    2.0126253 -0.024996126    20.826517    22.763831 -0.033245148 
 8880000    2.3262413 -0.011405735    20.839182    23.095862 0.0080306316 
 8890000    1.8788802 -0.011288278    21.029491    22.850111 -0.026011105 
 8900000    2.1453145 -0.038949786    20.784944    22.837676  0.066590144 
 8910000    3.1326394 -0.028997792    20.613508    23.638833  0.041757845 
 8920000    1.6181241 -0.038714977    20.991606    22.530562 -0.096399171 
 8930000    2.1334483 -0.050846233    20.724497    22.753763 -0.031600807 
 8940000    2.1168543 -0.049922108    21.415049     23.42906  0.024378831 
 8950000    2.5044417 -0.050459074     21.01619    23.407562 -0.012123177 
 8960000    1.8240242 -0.017818008    20.919986    22.680591  -0.12554203 
 8970000    1.9367742 -0.013036607    20.465188    22.340506   0.13234025 
 8980000    1.6788641 -0.0043541059    20.746514    22.379052  0.073667491 
 8990000    2.0302746 -0.051122713    20.527871    22.456266  0.015679059 
 9000000    1.9800843 -0.045893968    20.424028    22.308716 -0.032837821 
 9010000    2.0658867 -0.042959674    20.704779    22.676058 -0.013474433 
 9020000    2.1336722  0.021638441    21.155146    23.257115  0.063015527 
 9030000    2.4800616 -0.066616626    21.022569    23.374012 0.0030799501 
 9040000     2.862402  0.016572359    20.409636     23.21705  0.074605784 
 9050000    2.6058293 -0.065409113    20.530212    23.005486  -0.10656375 
 9060000    2.0680668 -0.058614905    20.520976    22.478726   0.21080429 
 9070000    2.3522089 0.0079764379    20.652684    22.954064   0.13064498 
 9080000    1.7980303  0.053194161    20.929028    22.735301   -0.1311767 
 9090000    1.5432202 -0.052669436    20.836038    22.288008 0.0026137874 
 9100000    2.4397568  0.028146595    20.700234    23.107144 0.00077411691 
 9110000    2.0486813  -0.17205672    20.373995    22.199403  0.061127731 
 9120000    2.4063897 -0.033667846    20.609949    22.922511 -0.046968879 
 9130000    1.8002046  0.043374137    20.630179    22.428753 -0.097272505 
 9140000    1.8585715  -0.05890877     20.60472    22.357918    0.1553106 
 9150000    2.2817405 -0.077926091     20.73171    22.878481 -0.066985861 
 9160000    1.9726567  0.013247638     21.21285    23.149437  0.031284362 
 9170000    2.1737725   0.04627131    20.723628    22.889327   0.15336521 
 9180000    1.6541489  -0.04232467    20.900366    22.470837  0.011264127 
 9190000    2.2091761 -0.0041112884    20.511824    22.661659   0.03022912 
 9200000    1.6139245  -0.12161472    20.624571    22.076532 -0.024491459 
 9210000    2.5701796  -0.02112978    20.873458    23.358254  0.051467199 
 9220000    2.0800196 -0.075755883    20.762208    22.714471  -0.13119129 
 9230000    1.7913882 -0.074434704    20.527379    22.199548  0.099674357 
 9240000    1.9277252 -0.050540155    20.574614    22.403606 0.0079116467 
 9250000    2.1746093 -0.033396795    20.672962     22.75981   0.10388947 
 9260000    1.9577772 -0.042235787    20.741655    22.608252 -0.042525957 
 9270000      2.83826  -0.02086683    20.757859    23.504296 -0.052390582 
 9280000    2.2936513 -0.00020893939    21.083746    23.319847  0.042475089 
 9290000    2.5109191 -0.035595536    20.834372    23.246923   0.19635145 
 9300000    2.0808764  -0.10965128    20.817124    22.736327 -0.088627417 
 9310000    2.3793664 -0.061172011    20.467597    22.726307   0.10221679 
 9320000    1.9233912            0    21.050795    22.926101  0.018123989 
 9330000    1.6519124 -0.089853803    20.473429     21.99419  0.030686931 
 9340000    2.4461475   -0.1032852     20.69949    22.981198  0.058369303 
 9350000    2.2176753  0.014409211     20.49248    22.669123 -0.079349815 
 9360000    2.5223455            0    21.075662    23.534949  0.080307087 
 9370000    2.0235563 -0.016391846    20.731587    22.688163   0.06687724 
 9380000    1.9762996 -0.024988689    20.561148    22.463051   0.11418294 
 9390000    2.2735608  -0.03991477    21.123348    23.300155   0.10654568 
 9400000     2.235767   0.10094746    20.512555    22.793375   0.19734529 
 9410000     1.850423 -0.018373184    20.857103    22.642893  0.077166981 
 9420000    1.7588988 -0.048868396    20.683946    22.350004  -0.11791864 
 9430000    2.1313928 -0.048617455    21.144908    23.174398 -0.046049723 
 9440000    1.8193908  -0.11423965    20.523932    22.183598 -0.0025844646 
 9450000    2.7220412 -0.048281011     20.69303    23.298739  0.021258411 
 9460000    1.7055583 -0.078514536    20.541307    22.125712  0.050188538 
 9470000    1.8318643 -0.019671186    20.550552    22.316948   0.14748593 
 9480000    1.8014778   0.01689112    21.000511    22.773843 -0.010706251 
 9490000    1.6750555            0    21.002257    22.635436   0.12353647 
 9500000    2.1860837  0.039379229    20.847163    23.017974   0.18381317 
 9510000       1.6905 -0.0050645759    20.329175    21.972348   0.01718854 
 9520000    2.2937723 -0.041504024     20.71545    22.910374  0.035685544 
 9530000    1.9583317 -0.029381873     20.47092    22.350912  0.079818123 
 9540000    2.3630536 -0.028155107     20.70452    22.980342  0.028675737 
 9550000    1.8193364  0.034735775    20.692445    22.501034 -0.041505739 
 9560000    2.2832405 -0.048304737    20.498834    22.676689 0.0087205863 
 9570000    1.5804195 -0.085921061    20.579912      22.0349   0.16063226 
 9580000        1.955 -0.034476021    20.558353    22.430002 -0.016949315 
 9590000    1.8704892   0.12991594    20.521972    22.475615   0.18799582 
 9600000    2.1080299  0.058149591    20.883386    22.996865 -0.034373204 
 9610000    1.9188697            0    20.818155    22.689053 -0.022884641 
 9620000    2.0107514 -0.018999582    20.975376    22.916859 -0.056686429 
 9630000    1.7683395 -0.022039981    20.796778    22.498869 -0.037507857 
 9640000     1.735348  0.029601365    20.819196    22.540762 -0.082292076 
 9650000    2.5505522 -0.018525332    20.292491    22.760754  0.099544905 
 9660000    1.7169048 -0.047923683    20.370796    21.996855 -0.028175508 
 9670000    1.6218211 -0.043262374    20.722298    22.260311 -0.022620367 
 9680000    2.3296538 -0.047638032    20.640407    22.864182  0.042877498 
 9690000     2.185557 -0.012382937    20.861858    22.980393 -0.011105729 
 9700000     1.575577 -0.0025062927    20.790268    22.323949  0.077693102 
 9710000    2.2912416 -0.024583034    20.538054    22.747432  0.087069498 
 9720000    1.8093158 -0.024138431    20.903213    22.643157  -0.06197189 
 9730000    1.4582953 -0.065049946    20.581214    21.938002 -0.073123235 
 9740000    1.8495885            0    20.773731     22.57708  -0.16888412 
 9750000    1.5236906 -0.031944654    20.748386    22.202039  0.087396273 
 9760000     1.874314 -0.036427084    20.569393    22.360422 -0.025782441 
 9770000    1.7470714 -0.034188949    20.739586    22.408792  0.059736455 
 9780000    2.6639825 -0.022693983    20.423334    22.998022  0.066610718 
 9790000    2.4551653            0    20.651517    23.045303  -0.17658747 
 9800000    1.9703656 -0.041813004    20.372091    22.251385  0.090969406 
 9810000    2.5440742  -0.02244962    21.326075    23.784098  -0.15056106 
 9820000    1.9677866 -0.023745644    20.836393     22.73124  0.099444388 
 9830000    1.8776524 0.0058823194    20.650081    22.486675 -0.045319418 
 9840000    2.3221633 -0.021732545    20.520909    22.763286  -0.06806431 
 9850000    2.2428649 -0.024993831    20.495113    22.656912  0.017253493 
 9860000    1.8384556 -0.053384438    21.220557    22.959666 -0.029976111 
 9870000    1.8991677            0    20.762677    22.614366   0.10038778 
 9880000    1.7958282  -0.03223221    20.904173    22.622873    0.0194416 
 9890000    2.0077253 -0.0084314089    20.772628    22.721729  0.040669569 
 9900000    2.2831188 -0.036179875    21.068055    23.257916   0.15486534 
 9910000    2.0424688  -0.02486432    21.135617     23.10216  0.047828811 
 9920000    2.4413324 -0.034044362    20.810094    23.156349  0.043141502 
 9930000    1.7692671            0    20.839333    22.564368 -0.056892225 
 9940000    1.7164319 -0.039641757    20.390418    22.024297 -0.037918145 
 9950000    1.9986491 -0.011794681    20.900115    22.837003    0.1495368 
 9960000    2.3269105 -0.040931453    20.985661    23.213467 -0.0073370103 
 9970000    2.6125486  0.035849376    20.679201    23.262285   0.18632815 
 9980000    2.0047794 -0.046132482    20.641702    22.550229  -0.08169731 
 9990000    2.0555681 -0.047505935    20.634981    22.591654 -0.025807073 
10000000    1.8764052            0    20.474741    22.304236   0.02639559 
Loop time of 49.582 on 1 procs for 10000000 steps with 40 atoms

Performance: 87128454.926 tau/day, 201686.238 timesteps/s
99.8% CPU use with 1 MPI tasks x no OpenMP threads

MPI task timing breakdown:
Section |  min time  |  avg time  |  max time  |%varavg| %total
---------------------------------------------------------------
Pair    | 2.9479     | 2.9479     | 2.9479     |   0.0 |  5.95
Bond    | 10.031     | 10.031     | 10.031     |   0.0 | 20.23
Neigh   | 6.629      | 6.629      | 6.629      |   0.0 | 13.37
Comm    | 1.9087     | 1.9087     | 1.9087     |   0.0 |  3.85
Output  | 0.013      | 0.013      | 0.013      |   0.0 |  0.03
Modify  | 25.838     | 25.838     | 25.838     |   0.0 | 52.11
Other   |            | 2.215      |            |       |  4.47

Nlocal:    40 ave 40 max 40 min
Histogram: 1 0 0 0 0 0 0 0 0 0
Nghost:    16 ave 16 max 16 min
Histogram: 1 0 0 0 0 0 0 0 0 0
Neighs:    10 ave 10 max 10 min
Histogram: 1 0 0 0 0 0 0 0 0 0

Total # of neighbors = 10
Ave neighs/atom = 0.25
Ave special neighs/atom = 1.95
Neighbor list builds = 991846
Dangerous builds = 930316

# write out the final conformation (to continue)
write_data      2d_chain_final.data
Total wall time: 0:01:13
